Rh  N  O                                
   1.00000000000000     
     8.2095097295758173    0.0000000000000000    0.0000000000000000
     4.1047548647879086    7.1096439784281742    0.0000000000000000
     0.0000000000000000    0.0000000000000000   23.9373821670554108
   Rh   N    O 
    36     1     3
Selective dynamics
Direct
  0.0000000000000000  0.0000000000000000  0.0000000000000000   F   F   F
  0.3333333333333357  0.0000000000000000  0.0000000000000000   F   F   F
  0.6666666666666643  0.0000000000000000  0.0000000000000000   F   F   F
  0.0000000000000000  0.3333333333333357  0.0000000000000000   F   F   F
  0.3333333333333357  0.3333333333333357  0.0000000000000000   F   F   F
  0.6666666666666643  0.3333333333333357  0.0000000000000000   F   F   F
  0.0000000000000000  0.6666666666666643  0.0000000000000000   F   F   F
  0.3333333333333357  0.6666666666666643  0.0000000000000000   F   F   F
  0.6666666666666643  0.6666666666666643  0.0000000000000000   F   F   F
  0.1111111111111143  0.1111111111111143  0.0933412653969725   F   F   F
  0.4444444444444429  0.1111111111111143  0.0933412653969725   F   F   F
  0.7777777777777786  0.1111111111111143  0.0933412653969725   F   F   F
  0.1111111111111143  0.4444444444444429  0.0933412653969725   F   F   F
  0.4444444444444429  0.4444444444444429  0.0933412653969725   F   F   F
  0.7777777777777786  0.4444444444444429  0.0933412653969725   F   F   F
  0.1111111111111143  0.7777777777777786  0.0933412653969725   F   F   F
  0.4444444444444429  0.7777777777777786  0.0933412653969725   F   F   F
  0.7777777777777786  0.7777777777777786  0.0933412653969725   F   F   F
  0.8862754867681109  0.2241659925397577  0.1844077347842536   T   T   T
  0.2233647657556650  0.2237186370147994  0.1849451421639993   T   T   T
  0.5542221526468117  0.2220241796917741  0.1840436617478486   T   T   T
  0.8902080686148152  0.5552996353113201  0.1840660680952340   T   T   T
  0.2237623380375645  0.5525339983721759  0.1836340043031399   T   T   T
  0.5547884390947506  0.5536736404525300  0.1851346640551752   T   T   T
  0.8899077442565931  0.8883326300570157  0.1834991936408643   T   T   T
  0.2220476342629378  0.8894645536479061  0.1834424732999470   T   T   T
  0.5557018104734540  0.8878608182269038  0.1829168444848557   T   T   T
 -0.0001469713059480  0.0059188956996730  0.2740588142549109   T   T   T
  0.3346807230998507  0.0003508454893251  0.2751291694849333   T   T   T
  0.6682618971411035 -0.0072228617572883  0.2740115706925928   T   T   T
 -0.0011825499786784  0.3311478847647275  0.2750644441849658   T   T   T
  0.3428755185652020  0.3261540516681429  0.2888786243080277   T   T   T
  0.6729787537984530  0.3291427610301684  0.2782225936187661   T   T   T
 -0.0099247361856068  0.6717827998206823  0.2774210822314969   T   T   T
  0.3327187944608002  0.6758463138333696  0.2774158743263973   T   T   T
  0.6659054204076752  0.6675521793678785  0.2755223665483272   T   T   T
  0.4845184839198562  0.2563941349402348  0.3639149168266602   T   T   T
  0.4361328284507094  0.2150814176421476  0.4072968408881902   T   T   T
  0.6239749259259449  0.2921342230234870  0.3642384189054324   T   T   T
  0.2004714108228653  0.5912965907572703  0.3286450200183993   T   T   T
 
  0.00000000E+00  0.00000000E+00  0.00000000E+00
  0.00000000E+00  0.00000000E+00  0.00000000E+00
  0.00000000E+00  0.00000000E+00  0.00000000E+00
  0.00000000E+00  0.00000000E+00  0.00000000E+00
  0.00000000E+00  0.00000000E+00  0.00000000E+00
  0.00000000E+00  0.00000000E+00  0.00000000E+00
  0.00000000E+00  0.00000000E+00  0.00000000E+00
  0.00000000E+00  0.00000000E+00  0.00000000E+00
  0.00000000E+00  0.00000000E+00  0.00000000E+00
  0.00000000E+00  0.00000000E+00  0.00000000E+00
  0.00000000E+00  0.00000000E+00  0.00000000E+00
  0.00000000E+00  0.00000000E+00  0.00000000E+00
  0.00000000E+00  0.00000000E+00  0.00000000E+00
  0.00000000E+00  0.00000000E+00  0.00000000E+00
  0.00000000E+00  0.00000000E+00  0.00000000E+00
  0.00000000E+00  0.00000000E+00  0.00000000E+00
  0.00000000E+00  0.00000000E+00  0.00000000E+00
  0.00000000E+00  0.00000000E+00  0.00000000E+00
  0.00000000E+00  0.00000000E+00  0.00000000E+00
  0.00000000E+00  0.00000000E+00  0.00000000E+00
  0.00000000E+00  0.00000000E+00  0.00000000E+00
  0.00000000E+00  0.00000000E+00  0.00000000E+00
  0.00000000E+00  0.00000000E+00  0.00000000E+00
  0.00000000E+00  0.00000000E+00  0.00000000E+00
  0.00000000E+00  0.00000000E+00  0.00000000E+00
  0.00000000E+00  0.00000000E+00  0.00000000E+00
  0.00000000E+00  0.00000000E+00  0.00000000E+00
  0.00000000E+00  0.00000000E+00  0.00000000E+00
  0.00000000E+00  0.00000000E+00  0.00000000E+00
  0.00000000E+00  0.00000000E+00  0.00000000E+00
  0.00000000E+00  0.00000000E+00  0.00000000E+00
  0.00000000E+00  0.00000000E+00  0.00000000E+00
  0.00000000E+00  0.00000000E+00  0.00000000E+00
  0.00000000E+00  0.00000000E+00  0.00000000E+00
  0.00000000E+00  0.00000000E+00  0.00000000E+00
  0.00000000E+00  0.00000000E+00  0.00000000E+00
  0.00000000E+00  0.00000000E+00  0.00000000E+00
  0.00000000E+00  0.00000000E+00  0.00000000E+00
  0.00000000E+00  0.00000000E+00  0.00000000E+00
  0.00000000E+00  0.00000000E+00  0.00000000E+00
