Rh  N  O 
 1.0000000000000000
     8.2095097295758173    0.0000000000000000    0.0000000000000000
     4.1047548647879086    7.1096439784281742    0.0000000000000000
     0.0000000000000000    0.0000000000000000   23.9373821670554108
 Rh  N   O  
  36   1   3
Selective dynamics
Cartesian
  0.0000000000000000  0.0000000000000000  0.0000000000000000   F   F   F
  2.7365032431919389  0.0000000000000000  0.0000000000000000   F   F   F
  5.4730064863838779  0.0000000000000000  0.0000000000000000   F   F   F
  1.3682516215959695  2.3698813261427247  0.0000000000000000   F   F   F
  4.1047548647879086  2.3698813261427247  0.0000000000000000   F   F   F
  6.8412581079798471  2.3698813261427247  0.0000000000000000   F   F   F
  2.7365032431919389  4.7397626522854495  0.0000000000000000   F   F   F
  5.4730064863838779  4.7397626522854495  0.0000000000000000   F   F   F
  8.2095097295758173  4.7397626522854495  0.0000000000000000   F   F   F
  1.3682516215959695  0.7899604420475749  2.2343455417638522   F   F   F
  4.1047548647879077  0.7899604420475749  2.2343455417638522   F   F   F
  6.8412581079798471  0.7899604420475749  2.2343455417638522   F   F   F
  2.7365032431919389  3.1598417681902995  2.2343455417638522   F   F   F
  5.4730064863838779  3.1598417681902995  2.2343455417638522   F   F   F
  8.2095097295758173  3.1598417681902995  2.2343455417638522   F   F   F
  4.1047548647879086  5.5297230943330247  2.2343455417638522   F   F   F
  6.8412581079798471  5.5297230943330247  2.2343455417638522   F   F   F
  9.5777613511717874  5.5297230943330247  2.2343455417638522   F   F   F
  0.0000000000000000  1.5799208840951497  4.4686910835277045   T   T   T
  2.7365032431919394  1.5799208840951497  4.4686910835277045   T   T   T
  5.4730064863838779  1.5799208840951497  4.4686910835277045   T   T   T
  1.3682516215959692  3.9498022102378743  4.4686910835277045   T   T   T
  4.1047548647879086  3.9498022102378743  4.4686910835277045   T   T   T
  6.8412581079798471  3.9498022102378743  4.4686910835277045   T   T   T
  2.7365032431919389  6.3196835363805990  4.4686910835277045   T   T   T
  5.4730064863838779  6.3196835363805990  4.4686910835277045   T   T   T
  8.2095097295758173  6.3196835363805990  4.4686910835277045   T   T   T
  0.0000000000000000  0.0000000000000000  6.7030366252915563   T   T   T
  2.7365032431919389  0.0000000000000000  6.7030366252915563   T   T   T
  5.4730064863838779  0.0000000000000000  6.7030366252915563   T   T   T
  1.3682516215959695  2.3698813261427247  6.7030366252915563   T   T   T
  4.1047548647879086  2.3698813261427247  6.7030366252915563   T   T   T
  6.8412581079798471  2.3698813261427247  6.7030366252915563   T   T   T
  2.7365032431919389  4.7397626522854495  6.7030366252915563   T   T   T
  5.4730064863838779  4.7397626522854495  6.7030366252915563   T   T   T
  8.2095097295758173  4.7397626522854495  6.7030366252915563   T   T   T
  5.2521075124993004  2.2999999999999998  8.7504876604312525   T   T   T
  4.6277450124993003  2.2999999999999998  9.8319152327719763   T   T   T
  6.5022894750014011  2.2999999999999998  8.7493929826714449   T   T   T
  4.1178580000000000  4.0000000000000009  7.8769976252915583   T   T   T

