Ni 
 1.0000000000000000
     7.5306872196367305    0.0000000000000000    0.0000000000000000
     3.7653436098183652    6.5217664401602118    0.0000000000000000
     0.0000000000000000    0.0000000000000000   23.1983738224926874
 Ni 
  36
Selective dynamics
Cartesian
  0.0000000000000000  0.0000000000000000  0.0000000000000000   F   F   F
  2.5102290732122432  0.0000000000000000  0.0000000000000000   F   F   F
  5.0204581464244864  0.0000000000000000  0.0000000000000000   F   F   F
  1.2551145366061216  2.1739221467200704  0.0000000000000000   F   F   F
  3.7653436098183648  2.1739221467200704  0.0000000000000000   F   F   F
  6.2755726830306084  2.1739221467200704  0.0000000000000000   F   F   F
  2.5102290732122432  4.3478442934401409  0.0000000000000000   F   F   F
  5.0204581464244864  4.3478442934401409  0.0000000000000000   F   F   F
  7.5306872196367296  4.3478442934401409  0.0000000000000000   F   F   F
  1.2551145366061216  0.7246407155733567  2.0495934556231719   F   F   F
  3.7653436098183644  0.7246407155733567  2.0495934556231719   F   F   F
  6.2755726830306084  0.7246407155733567  2.0495934556231719   F   F   F
  2.5102290732122432  2.8985628622934270  2.0495934556231719   F   F   F
  5.0204581464244864  2.8985628622934270  2.0495934556231719   F   F   F
  7.5306872196367305  2.8985628622934270  2.0495934556231719   F   F   F
  3.7653436098183648  5.0724850090134979  2.0495934556231719   F   F   F
  6.2755726830306076  5.0724850090134979  2.0495934556231719   F   F   F
  8.7858017562428525  5.0724850090134979  2.0495934556231719   F   F   F
  0.0000000000000000  1.4492814311467135  4.0991869112463437   T   T   T
  2.5102290732122436  1.4492814311467135  4.0991869112463437   T   T   T
  5.0204581464244864  1.4492814311467135  4.0991869112463437   T   T   T
  1.2551145366061214  3.6232035778667839  4.0991869112463437   T   T   T
  3.7653436098183648  3.6232035778667839  4.0991869112463437   T   T   T
  6.2755726830306084  3.6232035778667839  4.0991869112463437   T   T   T
  2.5102290732122432  5.7971257245868539  4.0991869112463437   T   T   T
  5.0204581464244864  5.7971257245868539  4.0991869112463437   T   T   T
  7.5306872196367296  5.7971257245868539  4.0991869112463437   T   T   T
  0.0000000000000000  0.0000000000000000  6.1487803668695156   T   T   T
  2.5102290732122432  0.0000000000000000  6.1487803668695156   T   T   T
  5.0204581464244864  0.0000000000000000  6.1487803668695156   T   T   T
  1.2551145366061216  2.1739221467200704  6.1487803668695156   T   T   T
  3.7653436098183648  2.1739221467200704  6.1487803668695156   T   T   T
  6.2755726830306084  2.1739221467200704  6.1487803668695156   T   T   T
  2.5102290732122432  4.3478442934401409  6.1487803668695156   T   T   T
  5.0204581464244864  4.3478442934401409  6.1487803668695156   T   T   T
  7.5306872196367296  4.3478442934401409  6.1487803668695156   T   T   T

