Ni                                      
   1.00000000000000     
     7.5306872196367305    0.0000000000000000    0.0000000000000000
     3.7653436098183652    6.5217664401602118    0.0000000000000000
     0.0000000000000000    0.0000000000000000   23.1983738224926874
   Ni
    36
Selective dynamics
Direct
  0.0000000000000000  0.0000000000000000  0.0000000000000000   F   F   F
  0.3333333333333357  0.0000000000000000  0.0000000000000000   F   F   F
  0.6666666666666643  0.0000000000000000  0.0000000000000000   F   F   F
  0.0000000000000000  0.3333333333333357  0.0000000000000000   F   F   F
  0.3333333333333357  0.3333333333333357  0.0000000000000000   F   F   F
  0.6666666666666643  0.3333333333333357  0.0000000000000000   F   F   F
  0.0000000000000000  0.6666666666666643  0.0000000000000000   F   F   F
  0.3333333333333357  0.6666666666666643  0.0000000000000000   F   F   F
  0.6666666666666643  0.6666666666666643  0.0000000000000000   F   F   F
  0.1111111111111143  0.1111111111111143  0.0883507383451132   F   F   F
  0.4444444444444429  0.1111111111111143  0.0883507383451132   F   F   F
  0.7777777777777786  0.1111111111111143  0.0883507383451132   F   F   F
  0.1111111111111143  0.4444444444444429  0.0883507383451132   F   F   F
  0.4444444444444429  0.4444444444444429  0.0883507383451132   F   F   F
  0.7777777777777786  0.4444444444444429  0.0883507383451132   F   F   F
  0.1111111111111143  0.7777777777777786  0.0883507383451132   F   F   F
  0.4444444444444429  0.7777777777777786  0.0883507383451132   F   F   F
  0.7777777777777786  0.7777777777777786  0.0883507383451132   F   F   F
  0.8888929850380264  0.2222250885372938  0.1767935029942533   T   T   T
  0.2222299487715208  0.2222247493793603  0.1767912043909834   T   T   T
  0.5555623051055770  0.2222232760167357  0.1767943893776409   T   T   T
  0.8888927263217832  0.5555599781776391  0.1767897564962439   T   T   T
  0.2222278479155564  0.5555593958727501  0.1767888534661056   T   T   T
  0.5555617412675136  0.5555579821926865  0.1767927322075631   T   T   T
  0.8888891351547139  0.8889006366796862  0.1767913868527001   T   T   T
  0.2222243647493051  0.8888974284050487  0.1767915867555664   T   T   T
  0.5555594023463182  0.8888994225133769  0.1767934249718061   T   T   T
  0.0000141392560439  0.0000076919558791  0.2645873802954605   T   T   T
  0.3333430789282009  0.0000120741788285  0.2645866179642520   T   T   T
  0.6666756840662686  0.0000118218454077  0.2645886675437214   T   T   T
  0.0000153299647432  0.3333429767073053  0.2645851868733372   T   T   T
  0.3333422362548397  0.3333455429421269  0.2645857463337147   T   T   T
  0.6666761581643134  0.3333424938150369  0.2645878383357377   T   T   T
  0.0000143242838396  0.6666760699924884  0.2645845629689061   T   T   T
  0.3333402039818356  0.6666776014259542  0.2645842410945888   T   T   T
  0.6666767568532853  0.6666788610600085  0.2645850845987330   T   T   T
 
  0.00000000E+00  0.00000000E+00  0.00000000E+00
  0.00000000E+00  0.00000000E+00  0.00000000E+00
  0.00000000E+00  0.00000000E+00  0.00000000E+00
  0.00000000E+00  0.00000000E+00  0.00000000E+00
  0.00000000E+00  0.00000000E+00  0.00000000E+00
  0.00000000E+00  0.00000000E+00  0.00000000E+00
  0.00000000E+00  0.00000000E+00  0.00000000E+00
  0.00000000E+00  0.00000000E+00  0.00000000E+00
  0.00000000E+00  0.00000000E+00  0.00000000E+00
  0.00000000E+00  0.00000000E+00  0.00000000E+00
  0.00000000E+00  0.00000000E+00  0.00000000E+00
  0.00000000E+00  0.00000000E+00  0.00000000E+00
  0.00000000E+00  0.00000000E+00  0.00000000E+00
  0.00000000E+00  0.00000000E+00  0.00000000E+00
  0.00000000E+00  0.00000000E+00  0.00000000E+00
  0.00000000E+00  0.00000000E+00  0.00000000E+00
  0.00000000E+00  0.00000000E+00  0.00000000E+00
  0.00000000E+00  0.00000000E+00  0.00000000E+00
  0.00000000E+00  0.00000000E+00  0.00000000E+00
  0.00000000E+00  0.00000000E+00  0.00000000E+00
  0.00000000E+00  0.00000000E+00  0.00000000E+00
  0.00000000E+00  0.00000000E+00  0.00000000E+00
  0.00000000E+00  0.00000000E+00  0.00000000E+00
  0.00000000E+00  0.00000000E+00  0.00000000E+00
  0.00000000E+00  0.00000000E+00  0.00000000E+00
  0.00000000E+00  0.00000000E+00  0.00000000E+00
  0.00000000E+00  0.00000000E+00  0.00000000E+00
  0.00000000E+00  0.00000000E+00  0.00000000E+00
  0.00000000E+00  0.00000000E+00  0.00000000E+00
  0.00000000E+00  0.00000000E+00  0.00000000E+00
  0.00000000E+00  0.00000000E+00  0.00000000E+00
  0.00000000E+00  0.00000000E+00  0.00000000E+00
  0.00000000E+00  0.00000000E+00  0.00000000E+00
  0.00000000E+00  0.00000000E+00  0.00000000E+00
  0.00000000E+00  0.00000000E+00  0.00000000E+00
  0.00000000E+00  0.00000000E+00  0.00000000E+00
