Ni                                      
   1.00000000000000     
     7.5306872196367305    0.0000000000000000    0.0000000000000000
     3.7653436098183652    6.5217664401602118    0.0000000000000000
     0.0000000000000000    0.0000000000000000   23.1983738224926874
   Ni
    36
Selective dynamics
Direct
  0.0000000000000000  0.0000000000000000  0.0000000000000000   F   F   F
  0.3333333333333357  0.0000000000000000  0.0000000000000000   F   F   F
  0.6666666666666643  0.0000000000000000  0.0000000000000000   F   F   F
  0.0000000000000000  0.3333333333333357  0.0000000000000000   F   F   F
  0.3333333333333357  0.3333333333333357  0.0000000000000000   F   F   F
  0.6666666666666643  0.3333333333333357  0.0000000000000000   F   F   F
  0.0000000000000000  0.6666666666666643  0.0000000000000000   F   F   F
  0.3333333333333357  0.6666666666666643  0.0000000000000000   F   F   F
  0.6666666666666643  0.6666666666666643  0.0000000000000000   F   F   F
  0.1111111111111143  0.1111111111111143  0.0883507383451132   F   F   F
  0.4444444444444429  0.1111111111111143  0.0883507383451132   F   F   F
  0.7777777777777786  0.1111111111111143  0.0883507383451132   F   F   F
  0.1111111111111143  0.4444444444444429  0.0883507383451132   F   F   F
  0.4444444444444429  0.4444444444444429  0.0883507383451132   F   F   F
  0.7777777777777786  0.4444444444444429  0.0883507383451132   F   F   F
  0.1111111111111143  0.7777777777777786  0.0883507383451132   F   F   F
  0.4444444444444429  0.7777777777777786  0.0883507383451132   F   F   F
  0.7777777777777786  0.7777777777777786  0.0883507383451132   F   F   F
  0.8888925850818140  0.2222227140985528  0.1767723455114909   T   T   T
  0.2222312918268348  0.2222223190198363  0.1767697780736663   T   T   T
  0.5555631712506195  0.2222200175993444  0.1767737661525328   T   T   T
  0.8888918723137164  0.5555586088614162  0.1767675101147566   T   T   T
  0.2222284652943744  0.5555582900863750  0.1767666363286400   T   T   T
  0.5555617321181889  0.5555564033572433  0.1767715540925601   T   T   T
  0.8888865809104539  0.8889040907595919  0.1767692577510001   T   T   T
  0.2222222332274253  0.8888988071805041  0.1767700556313939   T   T   T
  0.5555579706298527  0.8889023068076825  0.1767724485454400   T   T   T
  0.0000139581014860  0.0000059266523248  0.2646027137516163   T   T   T
  0.3333414897468218  0.0000114459495124  0.2646014404917611   T   T   T
  0.6666725216483678  0.0000120954834839  0.2646038296807537   T   T   T
  0.0000158899550445  0.3333401474103415  0.2646002427931679   T   T   T
  0.3333413152994899  0.3333435875782955  0.2646008172125170   T   T   T
  0.6666739897897024  0.3333404769279065  0.2646030692076387   T   T   T
  0.0000147318883845  0.6666742037776971  0.2645999786944203   T   T   T
  0.3333379292803139  0.6666766026972197  0.2645989782711006   T   T   T
  0.6666741069854363  0.6666785842775295  0.2646002682877236   T   T   T
 
  0.00000000E+00  0.00000000E+00  0.00000000E+00
  0.00000000E+00  0.00000000E+00  0.00000000E+00
  0.00000000E+00  0.00000000E+00  0.00000000E+00
  0.00000000E+00  0.00000000E+00  0.00000000E+00
  0.00000000E+00  0.00000000E+00  0.00000000E+00
  0.00000000E+00  0.00000000E+00  0.00000000E+00
  0.00000000E+00  0.00000000E+00  0.00000000E+00
  0.00000000E+00  0.00000000E+00  0.00000000E+00
  0.00000000E+00  0.00000000E+00  0.00000000E+00
  0.00000000E+00  0.00000000E+00  0.00000000E+00
  0.00000000E+00  0.00000000E+00  0.00000000E+00
  0.00000000E+00  0.00000000E+00  0.00000000E+00
  0.00000000E+00  0.00000000E+00  0.00000000E+00
  0.00000000E+00  0.00000000E+00  0.00000000E+00
  0.00000000E+00  0.00000000E+00  0.00000000E+00
  0.00000000E+00  0.00000000E+00  0.00000000E+00
  0.00000000E+00  0.00000000E+00  0.00000000E+00
  0.00000000E+00  0.00000000E+00  0.00000000E+00
  0.00000000E+00  0.00000000E+00  0.00000000E+00
  0.00000000E+00  0.00000000E+00  0.00000000E+00
  0.00000000E+00  0.00000000E+00  0.00000000E+00
  0.00000000E+00  0.00000000E+00  0.00000000E+00
  0.00000000E+00  0.00000000E+00  0.00000000E+00
  0.00000000E+00  0.00000000E+00  0.00000000E+00
  0.00000000E+00  0.00000000E+00  0.00000000E+00
  0.00000000E+00  0.00000000E+00  0.00000000E+00
  0.00000000E+00  0.00000000E+00  0.00000000E+00
  0.00000000E+00  0.00000000E+00  0.00000000E+00
  0.00000000E+00  0.00000000E+00  0.00000000E+00
  0.00000000E+00  0.00000000E+00  0.00000000E+00
  0.00000000E+00  0.00000000E+00  0.00000000E+00
  0.00000000E+00  0.00000000E+00  0.00000000E+00
  0.00000000E+00  0.00000000E+00  0.00000000E+00
  0.00000000E+00  0.00000000E+00  0.00000000E+00
  0.00000000E+00  0.00000000E+00  0.00000000E+00
  0.00000000E+00  0.00000000E+00  0.00000000E+00
