Cu Rh Cu                                
   1.00000000000000     
     7.8488852711706780    0.0000000000000000    0.0000000000000000
     3.9244426355853390    6.7973340362233188    0.0000000000000000
     0.0000000000000000    0.0000000000000000   23.5447839840064646
   Cu   Rh   Cu
    31     1     4
Selective dynamics
Direct
  0.0000000000000000  0.0000000000000000  0.0000000000000000   F   F   F
  0.3333333333333357  0.0000000000000000  0.0000000000000000   F   F   F
  0.6666666666666643  0.0000000000000000  0.0000000000000000   F   F   F
  0.0000000000000000  0.3333333333333357  0.0000000000000000   F   F   F
  0.3333333333333357  0.3333333333333357  0.0000000000000000   F   F   F
  0.6666666666666643  0.3333333333333357  0.0000000000000000   F   F   F
  0.0000000000000000  0.6666666666666643  0.0000000000000000   F   F   F
  0.3333333333333357  0.6666666666666643  0.0000000000000000   F   F   F
  0.6666666666666643  0.6666666666666643  0.0000000000000000   F   F   F
  0.1111111111111143  0.1111111111111143  0.0907290547856689   F   F   F
  0.4444444444444429  0.1111111111111143  0.0907290547856689   F   F   F
  0.7777777777777786  0.1111111111111143  0.0907290547856689   F   F   F
  0.1111111111111143  0.4444444444444429  0.0907290547856689   F   F   F
  0.4444444444444429  0.4444444444444429  0.0907290547856689   F   F   F
  0.7777777777777786  0.4444444444444429  0.0907290547856689   F   F   F
  0.1111111111111143  0.7777777777777786  0.0907290547856689   F   F   F
  0.4444444444444429  0.7777777777777786  0.0907290547856689   F   F   F
  0.7777777777777786  0.7777777777777786  0.0907290547856689   F   F   F
  0.8886909840219610  0.2226067222591674  0.1809984819681071   T   T   T
  0.2215406677130278  0.2215420889751403  0.1802223624905084   T   T   T
  0.5568995066852080  0.2215540927549202  0.1802182947463030   T   T   T
  0.8883376596640518  0.5558269115984938  0.1811897207191560   T   T   T
  0.2215558114873240  0.5568977715334630  0.1802183418962948   T   T   T
  0.5558402824226824  0.5558392692981585  0.1811893522962406   T   T   T
  0.8886911485859355  0.8886900230245067  0.1809965623377502   T   T   T
  0.2226068696269866  0.8886904422225484  0.1809984777111580   T   T   T
  0.5558249149863547  0.8883392490795983  0.1811895886893315   T   T   T
 -0.0000181316991735 -0.0000200385379777  0.2710680443862458   T   T   T
  0.3328460953465174 -0.0010573320783329  0.2714029886296755   T   T   T
  0.6681197344570405 -0.0010201252896326  0.2713985165327257   T   T   T
 -0.0010552137182878  0.3328430331931067  0.2714029214377893   T   T   T
  0.3333274874989797  0.3333263035108933  0.2693191128710262   T   T   T
  0.6681240743775674  0.3329486547163801  0.2714033742361580   T   T   T
 -0.0010194137229156  0.6681190514063806  0.2713989096494996   T   T   T
  0.3329506381233080  0.6681221728062720  0.2714034262764483   T   T   T
  0.6666745596367055  0.6666730331207911  0.2710115470329373   T   T   T
 
  0.00000000E+00  0.00000000E+00  0.00000000E+00
  0.00000000E+00  0.00000000E+00  0.00000000E+00
  0.00000000E+00  0.00000000E+00  0.00000000E+00
  0.00000000E+00  0.00000000E+00  0.00000000E+00
  0.00000000E+00  0.00000000E+00  0.00000000E+00
  0.00000000E+00  0.00000000E+00  0.00000000E+00
  0.00000000E+00  0.00000000E+00  0.00000000E+00
  0.00000000E+00  0.00000000E+00  0.00000000E+00
  0.00000000E+00  0.00000000E+00  0.00000000E+00
  0.00000000E+00  0.00000000E+00  0.00000000E+00
  0.00000000E+00  0.00000000E+00  0.00000000E+00
  0.00000000E+00  0.00000000E+00  0.00000000E+00
  0.00000000E+00  0.00000000E+00  0.00000000E+00
  0.00000000E+00  0.00000000E+00  0.00000000E+00
  0.00000000E+00  0.00000000E+00  0.00000000E+00
  0.00000000E+00  0.00000000E+00  0.00000000E+00
  0.00000000E+00  0.00000000E+00  0.00000000E+00
  0.00000000E+00  0.00000000E+00  0.00000000E+00
  0.00000000E+00  0.00000000E+00  0.00000000E+00
  0.00000000E+00  0.00000000E+00  0.00000000E+00
  0.00000000E+00  0.00000000E+00  0.00000000E+00
  0.00000000E+00  0.00000000E+00  0.00000000E+00
  0.00000000E+00  0.00000000E+00  0.00000000E+00
  0.00000000E+00  0.00000000E+00  0.00000000E+00
  0.00000000E+00  0.00000000E+00  0.00000000E+00
  0.00000000E+00  0.00000000E+00  0.00000000E+00
  0.00000000E+00  0.00000000E+00  0.00000000E+00
  0.00000000E+00  0.00000000E+00  0.00000000E+00
  0.00000000E+00  0.00000000E+00  0.00000000E+00
  0.00000000E+00  0.00000000E+00  0.00000000E+00
  0.00000000E+00  0.00000000E+00  0.00000000E+00
  0.00000000E+00  0.00000000E+00  0.00000000E+00
  0.00000000E+00  0.00000000E+00  0.00000000E+00
  0.00000000E+00  0.00000000E+00  0.00000000E+00
  0.00000000E+00  0.00000000E+00  0.00000000E+00
  0.00000000E+00  0.00000000E+00  0.00000000E+00
