Cu Rh Cu 
 1.0000000000000000
     7.8488852711706780    0.0000000000000000    0.0000000000000000
     3.9244426355853390    6.7973340362233188    0.0000000000000000
     0.0000000000000000    0.0000000000000000   23.5447839840064646
 Cu  Rh  Cu 
  31   1   4
Selective dynamics
Cartesian
  0.0000000000000000  0.0000000000000000  0.0000000000000000   F   F   F
  2.6162950903902260  0.0000000000000000  0.0000000000000000   F   F   F
  5.2325901807804520  0.0000000000000000  0.0000000000000000   F   F   F
  1.3081475451951130  2.2657780120744393  0.0000000000000000   F   F   F
  3.9244426355853390  2.2657780120744393  0.0000000000000000   F   F   F
  6.5407377259755650  2.2657780120744393  0.0000000000000000   F   F   F
  2.6162950903902260  4.5315560241488786  0.0000000000000000   F   F   F
  5.2325901807804520  4.5315560241488786  0.0000000000000000   F   F   F
  7.8488852711706780  4.5315560241488786  0.0000000000000000   F   F   F
  1.3081475451951130  0.7552593373581464  2.1361959960016157   F   F   F
  3.9244426355853390  0.7552593373581464  2.1361959960016157   F   F   F
  6.5407377259755650  0.7552593373581464  2.1361959960016157   F   F   F
  2.6162950903902260  3.0210373494325857  2.1361959960016157   F   F   F
  5.2325901807804520  3.0210373494325857  2.1361959960016157   F   F   F
  7.8488852711706780  3.0210373494325857  2.1361959960016157   F   F   F
  3.9244426355853390  5.2868153615070250  2.1361959960016157   F   F   F
  6.5407377259755650  5.2868153615070250  2.1361959960016157   F   F   F
  9.1570328163657919  5.2868153615070250  2.1361959960016157   F   F   F
 -0.0000000000000000  1.5105186747162929  4.2723919920032314   T   T   T
  2.6162950903902260  1.5105186747162929  4.2723919920032314   T   T   T
  5.2325901807804529  1.5105186747162929  4.2723919920032314   T   T   T
  1.3081475451951128  3.7762966867907317  4.2723919920032314   T   T   T
  3.9244426355853390  3.7762966867907317  4.2723919920032314   T   T   T
  6.5407377259755650  3.7762966867907317  4.2723919920032314   T   T   T
  2.6162950903902260  6.0420746988651715  4.2723919920032314   T   T   T
  5.2325901807804520  6.0420746988651715  4.2723919920032314   T   T   T
  7.8488852711706780  6.0420746988651715  4.2723919920032314   T   T   T
  0.0000000000000000  0.0000000000000000  6.4085879880048466   T   T   T
  2.6162950903902260  0.0000000000000000  6.4085879880048466   T   T   T
  5.2325901807804520  0.0000000000000000  6.4085879880048466   T   T   T
  1.3081475451951130  2.2657780120744393  6.4085879880048466   T   T   T
  3.9244426355853390  2.2657780120744393  6.4085879880048466   T   T   T
  6.5407377259755650  2.2657780120744393  6.4085879880048466   T   T   T
  2.6162950903902260  4.5315560241488786  6.4085879880048466   T   T   T
  5.2325901807804520  4.5315560241488786  6.4085879880048466   T   T   T
  7.8488852711706780  4.5315560241488786  6.4085879880048466   T   T   T

