Cu Pd Cu  N  O                          
   1.00000000000000     
     7.8488852711706780    0.0000000000000000    0.0000000000000000
     3.9244426355853390    6.7973340362233188    0.0000000000000000
     0.0000000000000000    0.0000000000000000   23.5447839840064646
   Cu   Pd   Cu   N    O 
    31     1     4     1     3
Selective dynamics
Direct
  0.0000000000000000  0.0000000000000000  0.0000000000000000   F   F   F
  0.3333333333333357  0.0000000000000000  0.0000000000000000   F   F   F
  0.6666666666666643  0.0000000000000000  0.0000000000000000   F   F   F
  0.0000000000000000  0.3333333333333357  0.0000000000000000   F   F   F
  0.3333333333333357  0.3333333333333357  0.0000000000000000   F   F   F
  0.6666666666666643  0.3333333333333357  0.0000000000000000   F   F   F
  0.0000000000000000  0.6666666666666643  0.0000000000000000   F   F   F
  0.3333333333333357  0.6666666666666643  0.0000000000000000   F   F   F
  0.6666666666666643  0.6666666666666643  0.0000000000000000   F   F   F
  0.1111111111111143  0.1111111111111143  0.0907290547856689   F   F   F
  0.4444444444444429  0.1111111111111143  0.0907290547856689   F   F   F
  0.7777777777777786  0.1111111111111143  0.0907290547856689   F   F   F
  0.1111111111111143  0.4444444444444429  0.0907290547856689   F   F   F
  0.4444444444444429  0.4444444444444429  0.0907290547856689   F   F   F
  0.7777777777777786  0.4444444444444429  0.0907290547856689   F   F   F
  0.1111111111111143  0.7777777777777786  0.0907290547856689   F   F   F
  0.4444444444444429  0.7777777777777786  0.0907290547856689   F   F   F
  0.7777777777777786  0.7777777777777786  0.0907290547856689   F   F   F
  0.8836762678469903  0.2244642789898493  0.1801618197008910   T   T   T
  0.2224625833244418  0.2233443003427831  0.1790601677943857   T   T   T
  0.5551125384747063  0.2237174445790377  0.1799784095837533   T   T   T
  0.8882876395534470  0.5551119162785860  0.1787669613295040   T   T   T
  0.2220151155694779  0.5541527480896168  0.1790061090892876   T   T   T
  0.5557042691045411  0.5525227990697609  0.1802729850532241   T   T   T
  0.8878252283518970  0.8892084512774087  0.1785160548988604   T   T   T
  0.2212537681428658  0.8893138682227524  0.1782518268140322   T   T   T
  0.5540901068169416  0.8892417801619704  0.1785921700834445   T   T   T
  0.9997303704937720  0.9989856831988522  0.2659234607976880   T   T   T
  0.3316104048520101  0.9960644384001318  0.2661881547121631   T   T   T
  0.6694804410367732  0.9935858708780219  0.2660376031322081   T   T   T
  0.9953632500259963  0.3338660114678647  0.2662194505455623   T   T   T
  0.3299950229484597  0.3341022416656111  0.2723305159240727   T   T   T
  0.6685759160002454  0.3337596327240344  0.2729777125705441   T   T   T
  0.9940434784884304  0.6712034374009486  0.2664009705145827   T   T   T
  0.3289121472167050  0.6740445282702734  0.2661106437171511   T   T   T
  0.6659793881920523  0.6679615600273139  0.2659573298671827   T   T   T
  0.5083103845192652  0.3365150191486229  0.3920176274148192   T   T   T
  0.5157190873251909  0.3379675222085187  0.4447153442856326   T   T   T
  0.6464772400932359  0.3391119751272598  0.3623121527421659   T   T   T
  0.3630638943361666  0.3325384228626816  0.3673340881734227   T   T   T
 
  0.00000000E+00  0.00000000E+00  0.00000000E+00
  0.00000000E+00  0.00000000E+00  0.00000000E+00
  0.00000000E+00  0.00000000E+00  0.00000000E+00
  0.00000000E+00  0.00000000E+00  0.00000000E+00
  0.00000000E+00  0.00000000E+00  0.00000000E+00
  0.00000000E+00  0.00000000E+00  0.00000000E+00
  0.00000000E+00  0.00000000E+00  0.00000000E+00
  0.00000000E+00  0.00000000E+00  0.00000000E+00
  0.00000000E+00  0.00000000E+00  0.00000000E+00
  0.00000000E+00  0.00000000E+00  0.00000000E+00
  0.00000000E+00  0.00000000E+00  0.00000000E+00
  0.00000000E+00  0.00000000E+00  0.00000000E+00
  0.00000000E+00  0.00000000E+00  0.00000000E+00
  0.00000000E+00  0.00000000E+00  0.00000000E+00
  0.00000000E+00  0.00000000E+00  0.00000000E+00
  0.00000000E+00  0.00000000E+00  0.00000000E+00
  0.00000000E+00  0.00000000E+00  0.00000000E+00
  0.00000000E+00  0.00000000E+00  0.00000000E+00
  0.00000000E+00  0.00000000E+00  0.00000000E+00
  0.00000000E+00  0.00000000E+00  0.00000000E+00
  0.00000000E+00  0.00000000E+00  0.00000000E+00
  0.00000000E+00  0.00000000E+00  0.00000000E+00
  0.00000000E+00  0.00000000E+00  0.00000000E+00
  0.00000000E+00  0.00000000E+00  0.00000000E+00
  0.00000000E+00  0.00000000E+00  0.00000000E+00
  0.00000000E+00  0.00000000E+00  0.00000000E+00
  0.00000000E+00  0.00000000E+00  0.00000000E+00
  0.00000000E+00  0.00000000E+00  0.00000000E+00
  0.00000000E+00  0.00000000E+00  0.00000000E+00
  0.00000000E+00  0.00000000E+00  0.00000000E+00
  0.00000000E+00  0.00000000E+00  0.00000000E+00
  0.00000000E+00  0.00000000E+00  0.00000000E+00
  0.00000000E+00  0.00000000E+00  0.00000000E+00
  0.00000000E+00  0.00000000E+00  0.00000000E+00
  0.00000000E+00  0.00000000E+00  0.00000000E+00
  0.00000000E+00  0.00000000E+00  0.00000000E+00
  0.00000000E+00  0.00000000E+00  0.00000000E+00
  0.00000000E+00  0.00000000E+00  0.00000000E+00
  0.00000000E+00  0.00000000E+00  0.00000000E+00
  0.00000000E+00  0.00000000E+00  0.00000000E+00
