Cu Pd Cu  N  O                          
   1.00000000000000     
     7.8488852711706780    0.0000000000000000    0.0000000000000000
     0.0000000000000000    7.8488852711706780    0.0000000000000000
     0.0000000000000000    0.0000000000000000   22.3999999999999986
   Cu   Pd   Cu   N    O 
    31     1     4     1     3
Selective dynamics
Direct
  0.1666666666666643  0.1666666666666643  0.0000000000000000   F   F   F
  0.5000000000000000  0.1666666666666643  0.0000000000000000   F   F   F
  0.8333333333333357  0.1666666666666643  0.0000000000000000   F   F   F
  0.1666666666666643  0.5000000000000000  0.0000000000000000   F   F   F
  0.5000000000000000  0.5000000000000000  0.0000000000000000   F   F   F
  0.8333333333333357  0.5000000000000000  0.0000000000000000   F   F   F
  0.1666666666666643  0.8333333333333357  0.0000000000000000   F   F   F
  0.5000000000000000  0.8333333333333357  0.0000000000000000   F   F   F
  0.8333333333333357  0.8333333333333357  0.0000000000000000   F   F   F
  0.0000000000000000  0.0000000000000000  0.0825892857142847   F   F   F
  0.3333333333333357  0.0000000000000000  0.0825892857142847   F   F   F
  0.6666666666666643  0.0000000000000000  0.0825892857142847   F   F   F
  0.0000000000000000  0.3333333333333357  0.0825892857142847   F   F   F
  0.3333333333333357  0.3333333333333357  0.0825892857142847   F   F   F
  0.6666666666666643  0.3333333333333357  0.0825892857142847   F   F   F
  0.0000000000000000  0.6666666666666643  0.0825892857142847   F   F   F
  0.3333333333333357  0.6666666666666643  0.0825892857142847   F   F   F
  0.6666666666666643  0.6666666666666643  0.0825892857142847   F   F   F
  0.1683477395068531  0.1687657033162535  0.1644769584489909   T   T   T
  0.5001313623394140  0.1698161874121597  0.1653495771466869   T   T   T
  0.8298691040546429  0.1689079154046352  0.1651415548241378   T   T   T
  0.1683998604430916  0.4979561496441957  0.1644968890853954   T   T   T
  0.5001417461840009  0.4968410005577250  0.1653727352794728   T   T   T
  0.8298092101112052  0.4977717870204031  0.1651582521197097   T   T   T
  0.1664633701757063  0.8333112001143236  0.1638213227083476   T   T   T
  0.5002570949105231  0.8333645288102925  0.1638928409964297   T   T   T
  0.8345850392250892  0.8333654892324864  0.1637781326907877   T   T   T
  0.0006851271525853  0.9999140068415788  0.2425891505854741   T   T   T
  0.3337159478521080  0.9947245031680455  0.2430194420016694   T   T   T
  0.6676574144248413  0.9964661153298385  0.2425693728071972   T   T   T
  0.9952517117992776  0.3334147412501208  0.2429988678138895   T   T   T
  0.3267088137044489  0.3333518703196271  0.2530484833592280   T   T   T
  0.6691620505538610  0.3335505484508887  0.2504738528357340   T   T   T
  0.0006340506141521  0.6668200232333684  0.2426238890868183   T   T   T
  0.3337798546906526  0.6719618762573113  0.2430568019007995   T   T   T
  0.6676438031877771  0.6702140290416397  0.2425790541130513   T   T   T
  0.5295755635326177  0.3292630404395339  0.3749950283926443   T   T   T
  0.5458399108914861  0.3268764325965504  0.4295872143757963   T   T   T
  0.6659773649459576  0.3291782180329468  0.3409193368470806   T   T   T
  0.3791883418805354  0.3317811521121814  0.3509000407906764   T   T   T
 
  0.00000000E+00  0.00000000E+00  0.00000000E+00
  0.00000000E+00  0.00000000E+00  0.00000000E+00
  0.00000000E+00  0.00000000E+00  0.00000000E+00
  0.00000000E+00  0.00000000E+00  0.00000000E+00
  0.00000000E+00  0.00000000E+00  0.00000000E+00
  0.00000000E+00  0.00000000E+00  0.00000000E+00
  0.00000000E+00  0.00000000E+00  0.00000000E+00
  0.00000000E+00  0.00000000E+00  0.00000000E+00
  0.00000000E+00  0.00000000E+00  0.00000000E+00
  0.00000000E+00  0.00000000E+00  0.00000000E+00
  0.00000000E+00  0.00000000E+00  0.00000000E+00
  0.00000000E+00  0.00000000E+00  0.00000000E+00
  0.00000000E+00  0.00000000E+00  0.00000000E+00
  0.00000000E+00  0.00000000E+00  0.00000000E+00
  0.00000000E+00  0.00000000E+00  0.00000000E+00
  0.00000000E+00  0.00000000E+00  0.00000000E+00
  0.00000000E+00  0.00000000E+00  0.00000000E+00
  0.00000000E+00  0.00000000E+00  0.00000000E+00
  0.00000000E+00  0.00000000E+00  0.00000000E+00
  0.00000000E+00  0.00000000E+00  0.00000000E+00
  0.00000000E+00  0.00000000E+00  0.00000000E+00
  0.00000000E+00  0.00000000E+00  0.00000000E+00
  0.00000000E+00  0.00000000E+00  0.00000000E+00
  0.00000000E+00  0.00000000E+00  0.00000000E+00
  0.00000000E+00  0.00000000E+00  0.00000000E+00
  0.00000000E+00  0.00000000E+00  0.00000000E+00
  0.00000000E+00  0.00000000E+00  0.00000000E+00
  0.00000000E+00  0.00000000E+00  0.00000000E+00
  0.00000000E+00  0.00000000E+00  0.00000000E+00
  0.00000000E+00  0.00000000E+00  0.00000000E+00
  0.00000000E+00  0.00000000E+00  0.00000000E+00
  0.00000000E+00  0.00000000E+00  0.00000000E+00
  0.00000000E+00  0.00000000E+00  0.00000000E+00
  0.00000000E+00  0.00000000E+00  0.00000000E+00
  0.00000000E+00  0.00000000E+00  0.00000000E+00
  0.00000000E+00  0.00000000E+00  0.00000000E+00
  0.00000000E+00  0.00000000E+00  0.00000000E+00
  0.00000000E+00  0.00000000E+00  0.00000000E+00
  0.00000000E+00  0.00000000E+00  0.00000000E+00
  0.00000000E+00  0.00000000E+00  0.00000000E+00
