Cu   N    O 
   1.00000000000000     
   7.8488852711706798   0.0000000000000000   0.0000000000000000
   3.9244426355853399   6.7973340362233197   0.0000000000000000
   0.0000000000000000   0.0000000000000000  23.5447839840065001
Cu   N    O 
36  1  3  
Selective dynamics
Direct
  0.0000000000000000  0.0000000000000000  0.0000000000000000 F F F
  0.3333333333333357  0.0000000000000000  0.0000000000000000 F F F
  0.6666666666666636  0.0000000000000000  0.0000000000000000 F F F
 -0.0000000000000000  0.3333333333333358  0.0000000000000000 F F F
  0.3333333333333348  0.3333333333333358  0.0000000000000000 F F F
  0.6666666666666636  0.3333333333333358  0.0000000000000000 F F F
  0.9999999999999856  0.6666666666666643  0.0000000000000000 F F F
  0.3333333333333357  0.6666666666666643  0.0000000000000000 F F F
  0.6666666666666636  0.6666666666666643  0.0000000000000000 F F F
  0.1111111111111143  0.1111111111111143  0.0907290547856690 F F F
  0.4444444444444429  0.1111111111111143  0.0907290547856690 F F F
  0.7777777777777786  0.1111111111111143  0.0907290547856690 F F F
  0.1111111111111142  0.4444444444444429  0.0907290547856690 F F F
  0.4444444444444428  0.4444444444444429  0.0907290547856690 F F F
  0.7777777777777768  0.4444444444444429  0.0907290547856690 F F F
  0.1111111111111138  0.7777777777777787  0.0907290547856690 F F F
  0.4444444444444428  0.7777777777777787  0.0907290547856690 F F F
  0.7777777777777785  0.7777777777777787  0.0907290547856690 F F F
  0.8839105573730650  0.2247851492334496  0.1797504280805497 T T T
  0.2219028632024170  0.2245537355819622  0.1797481346297609 T T T
  0.5528984615732490  0.2257402882034808  0.1809473335969519 T T T
  0.8882103834874231  0.5561618897811018  0.1791830646648596 T T T
  0.2205205550960163  0.5565606322116842  0.1802540006389100 T T T
  0.5529678148064708  0.5547932604716730  0.1809705636373388 T T T
  0.8881885144159646  0.8892057183438038  0.1791880513729455 T T T
  0.2219589553540831  0.8870272116428631  0.1797484465449007 T T T
  0.5542050897565168  0.8896420397183997  0.1786453427011173 T T T
  0.9961416498128932  0.0033346397791694  0.2665236327054857 T T T
  0.3313571514588238  0.0011242925363364  0.2667947161824188 T T T
  0.6633903457010781  0.0001919077255497  0.2669287564566782 T T T
  0.9959475176331024  0.3341836550653217  0.2665217390755925 T T T
  0.3280276660232565  0.3323060948721242  0.2693379005879980 T T T
  0.6668192184779188  0.3332029024627135  0.2723474755908920 T T T
  0.9872648222741330  0.6732035550321166  0.2675334912481372 T T T
  0.3283447107752313  0.6731881656177178  0.2694224071352722 T T T
  0.6634003997170832  0.6698887044331315  0.2669560558753765 T T T
  0.4129430738825485  0.4580053789755867  0.3867495683355409 T T T
  0.3480281182189846  0.4907453139618324  0.4356525574680875 T T T
  0.5953399303657603  0.3648270552011907  0.3731515680849363 T T T
  0.2762288127352487  0.5282332829555466  0.3407554926070356 T T T
