Cu   N    O 
   1.00000000000000     
   7.8488852711706798   0.0000000000000000   0.0000000000000000
   3.9244426355853399   6.7973340362233197   0.0000000000000000
   0.0000000000000000   0.0000000000000000  23.5447839840065001
Cu   N    O 
36  1  3  
Selective dynamics
Direct
  0.0000000000000000  0.0000000000000000  0.0000000000000000 F F F
  0.3333333333333357  0.0000000000000000  0.0000000000000000 F F F
  0.6666666666666636  0.0000000000000000  0.0000000000000000 F F F
 -0.0000000000000000  0.3333333333333358  0.0000000000000000 F F F
  0.3333333333333348  0.3333333333333358  0.0000000000000000 F F F
  0.6666666666666636  0.3333333333333358  0.0000000000000000 F F F
  0.9999999999999856  0.6666666666666643  0.0000000000000000 F F F
  0.3333333333333357  0.6666666666666643  0.0000000000000000 F F F
  0.6666666666666636  0.6666666666666643  0.0000000000000000 F F F
  0.1111111111111143  0.1111111111111143  0.0907290547856690 F F F
  0.4444444444444429  0.1111111111111143  0.0907290547856690 F F F
  0.7777777777777786  0.1111111111111143  0.0907290547856690 F F F
  0.1111111111111142  0.4444444444444429  0.0907290547856690 F F F
  0.4444444444444428  0.4444444444444429  0.0907290547856690 F F F
  0.7777777777777768  0.4444444444444429  0.0907290547856690 F F F
  0.1111111111111138  0.7777777777777787  0.0907290547856690 F F F
  0.4444444444444428  0.7777777777777787  0.0907290547856690 F F F
  0.7777777777777785  0.7777777777777787  0.0907290547856690 F F F
  0.8863930151777311  0.2236389350288472  0.1788121253652213 T T T
  0.2224739596745323  0.2239522065812966  0.1793226232004318 T T T
  0.5533597689301564  0.2239687275844045  0.1799962620242191 T T T
  0.8902828851615221  0.5576052238526847  0.1799758135350963 T T T
  0.2215500731957756  0.5561118411796164  0.1796784237916703 T T T
  0.5534042620682358  0.5563684649813454  0.1800009246415259 T T T
  0.8902635306394492  0.8858479431126502  0.1799750300264737 T T T
  0.2225376150979237  0.8872483732396820  0.1793107836513948 T T T
  0.5551837532508376  0.8892418348326032  0.1784673999715596 T T T
  0.9960333819012104  0.0058808542066457  0.2661054960894223 T T T
  0.3329454068748741  0.0004930385118980  0.2660704518193637 T T T
  0.6649605287549124  0.9993282295534692  0.2664167027679998 T T T
  0.9959094338284916  0.3320388227708091  0.2661293505291876 T T T
  0.3331286043740036  0.3265573171368124  0.2696521939307870 T T T
  0.6687338728016544  0.3324608879617065  0.2683639253835616 T T T
  0.9915671639526704  0.6712287207510093  0.2731883718391129 T T T
  0.3333432330433296  0.6740931864853831  0.2696959746215482 T T T
  0.6649839761399455  0.6695060757941685  0.2664306618329229 T T T
  0.4121676975057859  0.4577371467844705  0.4015006339561217 T T T
  0.3354157309383857  0.4976518204469860  0.4486807830493815 T T T
  0.5907817249393958  0.3652182364717533  0.3891075847866642 T T T
  0.2287718882937579  0.5526098224124389  0.3199534368826293 T T T
