Cu  N  O 
 1.0000000000000000
     7.8488619999999996    0.0000000000000000    0.0000000000000000
     3.9244420000000000    6.7973340000000002    0.0000000000000000
     0.0000000000000000    0.0000000000000000   23.5447869999999995
 Cu  N   O  
  36   1   3
Cartesian
  0.0000000000000000  0.0000000000000000  0.0000000000000000
  2.6162950000000000  0.0000000000000000  0.0000000000000000
  5.2325900000000001  0.0000000000000000  0.0000000000000000
  1.3081480000000001  2.2657780000000001  0.0000000000000000
  3.9244430000000001  2.2657780000000001  0.0000000000000000
  6.5407380000000002  2.2657780000000001  0.0000000000000000
 10.4651800000000001  4.5315560000000001  0.0000000000000000
  5.2325900000000001  4.5315560000000001  0.0000000000000000
  7.8488850000000001  4.5315560000000001  0.0000000000000000
  1.3081480000000001  0.7552590000000000  2.1361960000000000
  3.9244430000000001  0.7552590000000000  2.1361960000000000
  6.5407380000000002  0.7552590000000000  2.1361960000000000
  2.6162950000000000  3.0210370000000002  2.1361960000000000
  5.2325900000000001  3.0210370000000002  2.1361960000000000
  7.8488850000000001  3.0210370000000002  2.1361960000000000
  3.9244430000000001  5.2868149999999998  2.1361960000000000
  6.5407380000000002  5.2868149999999998  2.1361960000000000
  9.1570330000000002  5.2868149999999998  2.1361960000000000
  7.8466469999999999  1.5054270000000001  4.2058470000000003
  2.6288179999999999  1.5150429999999999  4.2481689999999999
  5.2149000000000001  1.5143860000000000  4.2447569999999999
  9.1681419999999996  3.7806649999999999  4.2511390000000002
  3.9179650000000001  3.7744219999999999  4.2730839999999999
  6.5240229999999997  3.7799749999999999  4.2455660000000002
 10.4603950000000001  6.0194219999999996  4.2504220000000004
  5.2308079999999997  6.0195369999999997  4.2481140000000002
  7.8456219999999997  6.0370790000000003  4.2177720000000001
 -0.0039030000000000  0.0257010000000000  6.3020730000000000
  6.5425230000000001  6.7880430000000000  6.3178960000000002
  9.1435239999999993  6.7880919999999998  6.3157240000000003
  1.2745500000000001  2.2406120000000000  6.3031470000000001
  3.9234830000000001  2.2010380000000000  6.4070790000000004
  6.5696700000000003  2.2389420000000002  6.2968050000000000
 10.4030140000000006  4.5586380000000002  6.4321549999999998
  5.2807560000000002  4.5529570000000001  6.4101429999999997
  7.8427639999999998  4.5345350000000000  6.3173899999999996
  4.0776110000000001  3.6665519999999998  9.5012319999999999
  3.1663160000000001  4.1760020000000004 10.1108080000000005
  5.0728980000000004  3.1026050000000001  9.8917730000000006
  3.9284170000000000  3.7635770000000002  7.6987340000000000
