Ru   N    O 
   1.00000000000000     
   8.1600000000000001   0.0000000000000000   0.0000000000000000
   4.0800000000000001   7.0667672948810196   0.0000000000000000
   0.0000000000000000   0.0000000000000000  23.5951999999999984
Ru   N    O 
36  1  3  
Selective dynamics
Direct
  0.8888888888888851  0.2222222222222214  0.0000000000000000 F F F
  0.2222222222222214  0.2222222222222214  0.0000000000000000 F F F
  0.5555555555555571  0.2222222222222214  0.0000000000000000 F F F
  0.8888888888888835  0.5555555555555572  0.0000000000000000 F F F
  0.2222222222222213  0.5555555555555572  0.0000000000000000 F F F
  0.5555555555555562  0.5555555555555572  0.0000000000000000 F F F
  0.8888888888888856  0.8888888888888857  0.0000000000000000 F F F
  0.2222222222222207  0.8888888888888857  0.0000000000000000 F F F
  0.5555555555555570  0.8888888888888857  0.0000000000000000 F F F
  0.0000000000000000  0.0000000000000000  0.0910693700413674 F F F
  0.3333333333333342  0.0000000000000000  0.0910693700413674 F F F
  0.6666666666666629  0.0000000000000000  0.0910693700413674 F F F
  0.9999999999999500  0.3333333333333357  0.0910693700413674 F F F
  0.3333333333333356  0.3333333333333357  0.0910693700413674 F F F
  0.6666666666665892  0.3333333333333357  0.0910693700413674 F F F
  0.9999999999999356  0.6666666666666646  0.0910693700413674 F F F
  0.3333333333332608  0.6666666666666646  0.0910693700413674 F F F
  0.6666666666666550  0.6666666666666646  0.0910693700413674 F F F
  0.8894007770844899  0.2228919963213301  0.1829188145097277 T T T
  0.2222075605617083  0.2231968396700319  0.1833361747858237 T T T
  0.5557865765977166  0.2225411557034165  0.1827019518062532 T T T
  0.8890475294063122  0.5552718367421362  0.1823503338543682 T T T
  0.2224495736487249  0.5554371365048901  0.1823907530477317 T T T
  0.5555775105505031  0.5559131955484634  0.1825080834294567 T T T
  0.8887527825588142  0.8895171180009597  0.1825548178811605 T T T
  0.2223250207062518  0.8895654314510196  0.1835560186178382 T T T
  0.5554195948560814  0.8896259458712326  0.1829657759066101 T T T
  0.0017967563904797  0.9991843411214140  0.2704418831313401 T T T
  0.3336860196093511  0.0011372950158961  0.2710233423964979 T T T
  0.6676669666579821  0.9960875346873496  0.2704958052819654 T T T
  0.0003473619926554  0.3350945343650503  0.2707157224357680 T T T
  0.3329094039865954  0.3374933404568589  0.2726361912974736 T T T
  0.6685680018020075  0.3331767791570541  0.2726864304750244 T T T
  0.9952068190643416  0.6708304303520977  0.2704045955346913 T T T
  0.3285808457179603  0.6730715349010752  0.2706749886120132 T T T
  0.6664060078266898  0.6696394072951215  0.2706812150491878 T T T
  0.4916508555446474  0.3903253943308572  0.3893572269593877 T T T
  0.4806208908667327  0.3990819334891900  0.4410694957819463 T T T
  0.6532477612684698  0.3301521899752741  0.3634627853525269 T T T
  0.3364415477278394  0.4469378830865458  0.3582648288620028 T T T
