Cu   Rh   Cu   N    O 
   1.00000000000000     
   7.8488852711706798   0.0000000000000000   0.0000000000000000
   3.9244426355853399   6.7973340362233197   0.0000000000000000
   0.0000000000000000   0.0000000000000000  23.5447839840065001
Cu   Rh   Cu   N    O 
31  1  4  1  3  
Selective dynamics
Direct
  0.0000000000000000  0.0000000000000000  0.0000000000000000 F F F
  0.3333333333333357  0.0000000000000000  0.0000000000000000 F F F
  0.6666666666666643  0.0000000000000000  0.0000000000000000 F F F
  0.0000000000000000  0.3333333333333357  0.0000000000000000 F F F
  0.3333333333333357  0.3333333333333357  0.0000000000000000 F F F
  0.6666666666666643  0.3333333333333357  0.0000000000000000 F F F
  0.0000000000000000  0.6666666666666643  0.0000000000000000 F F F
  0.3333333333333357  0.6666666666666643  0.0000000000000000 F F F
  0.6666666666666643  0.6666666666666643  0.0000000000000000 F F F
  0.1111111111111143  0.1111111111111143  0.0907290547856689 F F F
  0.4444444444444429  0.1111111111111143  0.0907290547856689 F F F
  0.7777777777777786  0.1111111111111143  0.0907290547856689 F F F
  0.1111111111111143  0.4444444444444429  0.0907290547856689 F F F
  0.4444444444444429  0.4444444444444429  0.0907290547856689 F F F
  0.7777777777777786  0.4444444444444429  0.0907290547856689 F F F
  0.1111111111111143  0.7777777777777786  0.0907290547856689 F F F
  0.4444444444444429  0.7777777777777786  0.0907290547856689 F F F
  0.7777777777777786  0.7777777777777786  0.0907290547856689 F F F
  0.8849727686049483  0.2244133997153160  0.1809738398639453 T T T
  0.2236275142510679  0.2230815896862229  0.1794347607389311 T T T
  0.5547147707463529  0.2242200207743792  0.1804152483545713 T T T
  0.8894179015109329  0.5549658914620087  0.1795302507613406 T T T
  0.2229689703271453  0.5534045330848703  0.1793953010357909 T T T
  0.5571930422149178  0.5527828960095391  0.1807666121736329 T T T
  0.8887829455192906  0.8890303757788695  0.1794035002811364 T T T
  0.2225300981659661  0.8891083306457730  0.1790553996766371 T T T
  0.5550800665694884  0.8888669539356790  0.1792197692533320 T T T
  0.0022194233913365  0.9980894777133336  0.2674864917443268 T T T
  0.3330051026520185  0.9979998375447028  0.2680827434002995 T T T
  0.6695090301812244  0.9948399428151522  0.2673631913593851 T T T
  0.0002030014526304  0.3335584353096789  0.2680934377214773 T T T
  0.3327627539599879  0.3339586230604119  0.2719046377672793 T T T
  0.6703605503221758  0.3332322202736493  0.2736647940706292 T T T
  0.9975468643785094  0.6692337920072876  0.2682674614617656 T T T
  0.3306179511142498  0.6721761604367593  0.2673768784550065 T T T
  0.6673432696982187  0.6681689054980824  0.2674417752303622 T T T
  0.5053899877351664  0.3322193817740796  0.3895181483923298 T T T
  0.5013678270228602  0.3343529295940356  0.4416542585094216 T T T
  0.6515599245973983  0.3260723996917275  0.3618845806687708 T T T
  0.3575504576822123  0.3362390524173284  0.3616118698037482 T T T
