Cu Ni Cu  N  O 
 1.0000000000000000
     7.8488852711706780    0.0000000000000000    0.0000000000000000
     0.0000000000000000    7.8488852711706780    0.0000000000000000
     0.0000000000000000    0.0000000000000000   22.3999999999999986
 Cu  Ni  Cu  N   O  
  31   1   4   1   3
Selective dynamics
Cartesian
  1.3081475451950944  1.3081475451950944  0.0000000000000000   F   F   F
  3.9244426355853390  1.3081475451950944  0.0000000000000000   F   F   F
  6.5407377259755837  1.3081475451950944  0.0000000000000000   F   F   F
  1.3081475451950944  3.9244426355853390  0.0000000000000000   F   F   F
  3.9244426355853390  3.9244426355853390  0.0000000000000000   F   F   F
  6.5407377259755837  3.9244426355853390  0.0000000000000000   F   F   F
  1.3081475451950944  6.5407377259755837  0.0000000000000000   F   F   F
  3.9244426355853390  6.5407377259755837  0.0000000000000000   F   F   F
  6.5407377259755837  6.5407377259755837  0.0000000000000000   F   F   F
  0.0000000000000000  0.0000000000000000  1.8499999999999772   F   F   F
  2.6162950903902447  0.0000000000000000  1.8499999999999772   F   F   F
  5.2325901807804334  0.0000000000000000  1.8499999999999772   F   F   F
  0.0000000000000000  2.6162950903902447  1.8499999999999772   F   F   F
  2.6162950903902447  2.6162950903902447  1.8499999999999772   F   F   F
  5.2325901807804334  2.6162950903902447  1.8499999999999772   F   F   F
  0.0000000000000000  5.2325901807804334  1.8499999999999772   F   F   F
  2.6162950903902447  5.2325901807804334  1.8499999999999772   F   F   F
  5.2325901807804334  5.2325901807804334  1.8499999999999772   F   F   F
  1.3331741934508825  1.3365957808505677  3.6803319126381249   T   T   T
  3.9595910160767889  1.2973773479526847  3.6848992713555906   T   T   T
  6.5625087059609308  1.3801560483715851  3.7082426318379427   T   T   T
  1.3286337207847294  3.9055683870681643  3.6266590121197271   T   T   T
  3.9147886732340522  3.8835210540297949  3.7069912473010835   T   T   T
  6.5311922894894252  3.9424529250749192  3.7006032974402236   T   T   T
  1.2817431761413181  6.5321739402729628  3.6763501524150866   T   T   T
  3.8822831717711681  6.4964157672130618  3.6763841169497407   T   T   T
  6.5356616141723087  6.5614952097495323  3.6661615298936745   T   T   T
  0.0065088213874860  0.1003575153716334  5.4177011048295132   T   T   T
  2.6425866519190322  7.7522669045592778  5.4254772636566519   T   T   T
  5.2632795755379878  7.8140107003833759  5.4110105016971541   T   T   T
  0.0513654245275319  2.7183411604561734  5.5368933322723235   T   T   T
  2.6945394695833578  2.4615477636654215  5.6941019122191587   T   T   T
  5.3657748585609157  2.6209386442071883  5.5710702478767207   T   T   T
  7.6986723206387735  5.3927335977717759  5.5441863343104245   T   T   T
  2.5358597289656704  5.2077793052163495  5.5325710063728879   T   T   T
  5.1482629495411034  5.2715763635018273  5.4151939586557516   T   T   T
  3.9319270909339648  2.5352825136432533  7.6403358361328495   T   T   T
  3.3904218916170863  2.4462634053263157  8.7309194238169763   T   T   T
  5.2410446740417740  2.6110271932577822  7.5864041566619775   T   T   T
  1.1978795047726463  2.5728802645933841  6.8895094688860254   T   T   T

