Cu   Ru   Cu   N    O 
   1.00000000000000     
   7.8488852711706798   0.0000000000000000   0.0000000000000000
   0.0000000000000000   7.8488852711706798   0.0000000000000000
   0.0000000000000000   0.0000000000000000  22.3999999999999986
Cu   Ru   Cu   N    O 
31  1  4  1  3  
Selective dynamics
Direct
  0.1666666666666643  0.1666666666666643  0.0000000000000000 F F F
  0.5000000000000000  0.1666666666666643  0.0000000000000000 F F F
  0.8333333333333357  0.1666666666666643  0.0000000000000000 F F F
  0.1666666666666643  0.5000000000000000  0.0000000000000000 F F F
  0.5000000000000000  0.5000000000000000  0.0000000000000000 F F F
  0.8333333333333357  0.5000000000000000  0.0000000000000000 F F F
  0.1666666666666643  0.8333333333333357  0.0000000000000000 F F F
  0.5000000000000000  0.8333333333333357  0.0000000000000000 F F F
  0.8333333333333357  0.8333333333333357  0.0000000000000000 F F F
  0.0000000000000000  0.0000000000000000  0.0825892857142847 F F F
  0.3333333333333357  0.0000000000000000  0.0825892857142847 F F F
  0.6666666666666643  0.0000000000000000  0.0825892857142847 F F F
  0.0000000000000000  0.3333333333333357  0.0825892857142847 F F F
  0.3333333333333357  0.3333333333333357  0.0825892857142847 F F F
  0.6666666666666643  0.3333333333333357  0.0825892857142847 F F F
  0.0000000000000000  0.6666666666666643  0.0825892857142847 F F F
  0.3333333333333357  0.6666666666666643  0.0825892857142847 F F F
  0.6666666666666643  0.6666666666666643  0.0825892857142847 F F F
  0.1664537119278108  0.1667412665500165  0.1640252683845549 T T T
  0.5008750823483245  0.1693012710359427  0.1654110873058462 T T T
  0.8305381235632918  0.1689259923984808  0.1654789003493921 T T T
  0.1664629454370025  0.4999098366940210  0.1640455372545565 T T T
  0.5008629753183991  0.4972846114967531  0.1654263985634429 T T T
  0.8305043873357203  0.4977587140911428  0.1654867561379316 T T T
  0.1657519665419978  0.8332945434913640  0.1640006516198960 T T T
  0.4998418797719840  0.8332768076220456  0.1638184437221051 T T T
  0.8345081608347058  0.8333360063269702  0.1639232565861092 T T T
  0.9996627721550840  0.9994630596829310  0.2433201042853880 T T T
  0.3335515143739026  0.9970106784058080  0.2424168092299193 T T T
  0.6676095444356550  0.9960853370511260  0.2427662604312512 T T T
  0.0008211288428723  0.3334017914663361  0.2429041348984010 T T T
  0.3305992535583699  0.3331300559010095  0.2472328587543912 T T T
  0.6704508279258335  0.3333765302468328  0.2497765170388929 T T T
  0.9996265635695880  0.6672686638429907  0.2433380719219868 T T T
  0.3335652695759097  0.6693518093070591  0.2424522992336527 T T T
  0.6675902990926970  0.6704702285944949  0.2427959365212132 T T T
  0.4900844787612747  0.3312780208128444  0.3698799198948740 T T T
  0.4784323147405088  0.3307350799254038  0.4244909965792001 T T T
  0.6344905029676277  0.3310275587180503  0.3426397391609994 T T T
  0.3452749534419882  0.3320527436106440  0.3381146059400734 T T T
