Ru                                      
   1.00000000000000     
     8.1600000000000001    0.0000000000000000    0.0000000000000000
     4.0800000000000001    7.0667672948810196    0.0000000000000000
     0.0000000000000000    0.0000000000000000   23.5951999999999984
   Ru
    36
Selective dynamics
Direct
  0.8888888888888857  0.2222222222222214  0.0000000000000000   F   F   F
  0.2222222222222214  0.2222222222222214  0.0000000000000000   F   F   F
  0.5555555555555571  0.2222222222222214  0.0000000000000000   F   F   F
  0.8888888888888857  0.5555555555555571  0.0000000000000000   F   F   F
  0.2222222222222214  0.5555555555555571  0.0000000000000000   F   F   F
  0.5555555555555571  0.5555555555555571  0.0000000000000000   F   F   F
  0.8888888888888857  0.8888888888888857  0.0000000000000000   F   F   F
  0.2222222222222214  0.8888888888888857  0.0000000000000000   F   F   F
  0.5555555555555571  0.8888888888888857  0.0000000000000000   F   F   F
  0.0000000000000000  0.0000000000000000  0.0910693700413674   F   F   F
  0.3333333333333357  0.0000000000000000  0.0910693700413674   F   F   F
  0.6666666666666643  0.0000000000000000  0.0910693700413674   F   F   F
  0.0000000000000000  0.3333333333333357  0.0910693700413674   F   F   F
  0.3333333333333357  0.3333333333333357  0.0910693700413674   F   F   F
  0.6666666666666643  0.3333333333333357  0.0910693700413674   F   F   F
  0.0000000000000000  0.6666666666666643  0.0910693700413674   F   F   F
  0.3333333333333357  0.6666666666666643  0.0910693700413674   F   F   F
  0.6666666666666643  0.6666666666666643  0.0910693700413674   F   F   F
  0.8888889235430111  0.2222226492608091  0.1825211945892079   T   T   T
  0.2222218119430963  0.2222229685664551  0.1825211736874232   T   T   T
  0.5555554112304177  0.2222224872757260  0.1825211182527132   T   T   T
  0.8888896959712471  0.5555547652502090  0.1825210541446199   T   T   T
  0.2222221426656369  0.5555547917778351  0.1825209292769515   T   T   T
  0.5555562884003872  0.5555546386793487  0.1825207526183868   T   T   T
  0.8888887704372839  0.8888891130164719  0.1825209164908460   T   T   T
  0.2222217221546551  0.8888896525235315  0.1825206837248022   T   T   T
  0.5555556212556401  0.8888894340585356  0.1825206958311355   T   T   T
 -0.0000013357706587  0.0000019850121289  0.2708479419267497   T   T   T
  0.3333318104562616  0.0000029441993297  0.2708477128477875   T   T   T
  0.6666661204779206  0.0000014300532590  0.2708480096288140   T   T   T
  0.0000003938599643  0.3333335606693570  0.2708488726514293   T   T   T
  0.3333322956692515  0.3333332385979530  0.2708486656329493   T   T   T
  0.6666673853623386  0.3333326150505194  0.2708484128012575   T   T   T
  0.0000005632645114  0.6666644448487015  0.2708480306066384   T   T   T
  0.3333333858551468  0.6666649072624745  0.2708471961961089   T   T   T
  0.6666688759704306  0.6666646008044127  0.2708474696145819   T   T   T
 
  0.00000000E+00  0.00000000E+00  0.00000000E+00
  0.00000000E+00  0.00000000E+00  0.00000000E+00
  0.00000000E+00  0.00000000E+00  0.00000000E+00
  0.00000000E+00  0.00000000E+00  0.00000000E+00
  0.00000000E+00  0.00000000E+00  0.00000000E+00
  0.00000000E+00  0.00000000E+00  0.00000000E+00
  0.00000000E+00  0.00000000E+00  0.00000000E+00
  0.00000000E+00  0.00000000E+00  0.00000000E+00
  0.00000000E+00  0.00000000E+00  0.00000000E+00
  0.00000000E+00  0.00000000E+00  0.00000000E+00
  0.00000000E+00  0.00000000E+00  0.00000000E+00
  0.00000000E+00  0.00000000E+00  0.00000000E+00
  0.00000000E+00  0.00000000E+00  0.00000000E+00
  0.00000000E+00  0.00000000E+00  0.00000000E+00
  0.00000000E+00  0.00000000E+00  0.00000000E+00
  0.00000000E+00  0.00000000E+00  0.00000000E+00
  0.00000000E+00  0.00000000E+00  0.00000000E+00
  0.00000000E+00  0.00000000E+00  0.00000000E+00
  0.00000000E+00  0.00000000E+00  0.00000000E+00
  0.00000000E+00  0.00000000E+00  0.00000000E+00
  0.00000000E+00  0.00000000E+00  0.00000000E+00
  0.00000000E+00  0.00000000E+00  0.00000000E+00
  0.00000000E+00  0.00000000E+00  0.00000000E+00
  0.00000000E+00  0.00000000E+00  0.00000000E+00
  0.00000000E+00  0.00000000E+00  0.00000000E+00
  0.00000000E+00  0.00000000E+00  0.00000000E+00
  0.00000000E+00  0.00000000E+00  0.00000000E+00
  0.00000000E+00  0.00000000E+00  0.00000000E+00
  0.00000000E+00  0.00000000E+00  0.00000000E+00
  0.00000000E+00  0.00000000E+00  0.00000000E+00
  0.00000000E+00  0.00000000E+00  0.00000000E+00
  0.00000000E+00  0.00000000E+00  0.00000000E+00
  0.00000000E+00  0.00000000E+00  0.00000000E+00
  0.00000000E+00  0.00000000E+00  0.00000000E+00
  0.00000000E+00  0.00000000E+00  0.00000000E+00
  0.00000000E+00  0.00000000E+00  0.00000000E+00
