Ru                                      
   1.00000000000000     
     8.1600000000000001    0.0000000000000000    0.0000000000000000
     4.0800000000000001    7.0667672948810196    0.0000000000000000
     0.0000000000000000    0.0000000000000000   23.5951999999999984
   Ru
    36
Selective dynamics
Direct
  0.8888888888888857  0.2222222222222214  0.0000000000000000   F   F   F
  0.2222222222222214  0.2222222222222214  0.0000000000000000   F   F   F
  0.5555555555555571  0.2222222222222214  0.0000000000000000   F   F   F
  0.8888888888888857  0.5555555555555571  0.0000000000000000   F   F   F
  0.2222222222222214  0.5555555555555571  0.0000000000000000   F   F   F
  0.5555555555555571  0.5555555555555571  0.0000000000000000   F   F   F
  0.8888888888888857  0.8888888888888857  0.0000000000000000   F   F   F
  0.2222222222222214  0.8888888888888857  0.0000000000000000   F   F   F
  0.5555555555555571  0.8888888888888857  0.0000000000000000   F   F   F
  0.0000000000000000  0.0000000000000000  0.0910693700413674   F   F   F
  0.3333333333333357  0.0000000000000000  0.0910693700413674   F   F   F
  0.6666666666666643  0.0000000000000000  0.0910693700413674   F   F   F
  0.0000000000000000  0.3333333333333357  0.0910693700413674   F   F   F
  0.3333333333333357  0.3333333333333357  0.0910693700413674   F   F   F
  0.6666666666666643  0.3333333333333357  0.0910693700413674   F   F   F
  0.0000000000000000  0.6666666666666643  0.0910693700413674   F   F   F
  0.3333333333333357  0.6666666666666643  0.0910693700413674   F   F   F
  0.6666666666666643  0.6666666666666643  0.0910693700413674   F   F   F
  0.8888888888888857  0.2222222222222214  0.1826664918970248   T   T   T
  0.2222222222222214  0.2222222222222214  0.1826664918970248   T   T   T
  0.5555555555555571  0.2222222222222214  0.1826664918970248   T   T   T
  0.8888888888888857  0.5555555555555571  0.1826664918970248   T   T   T
  0.2222222222222214  0.5555555555555571  0.1826664918970248   T   T   T
  0.5555555555555571  0.5555555555555571  0.1826664918970248   T   T   T
  0.8888888888888857  0.8888888888888857  0.1826664918970248   T   T   T
  0.2222222222222214  0.8888888888888857  0.1826664918970248   T   T   T
  0.5555555555555571  0.8888888888888857  0.1826664918970248   T   T   T
 -0.0000000000000000 -0.0000000000000000  0.2710186241352628   T   T   T
  0.3333333333333357 -0.0000000000000000  0.2710186241352628   T   T   T
  0.6666666666666643 -0.0000000000000000  0.2710186241352628   T   T   T
 -0.0000000000000000  0.3333333333333357  0.2710186241352628   T   T   T
  0.3333333333333357  0.3333333333333357  0.2710186241352628   T   T   T
  0.6666666666666643  0.3333333333333357  0.2710186241352628   T   T   T
 -0.0000000000000000  0.6666666666666643  0.2710186241352628   T   T   T
  0.3333333333333357  0.6666666666666643  0.2710186241352628   T   T   T
  0.6666666666666643  0.6666666666666643  0.2710186241352628   T   T   T
 
  0.00000000E+00  0.00000000E+00  0.00000000E+00
  0.00000000E+00  0.00000000E+00  0.00000000E+00
  0.00000000E+00  0.00000000E+00  0.00000000E+00
  0.00000000E+00  0.00000000E+00  0.00000000E+00
  0.00000000E+00  0.00000000E+00  0.00000000E+00
  0.00000000E+00  0.00000000E+00  0.00000000E+00
  0.00000000E+00  0.00000000E+00  0.00000000E+00
  0.00000000E+00  0.00000000E+00  0.00000000E+00
  0.00000000E+00  0.00000000E+00  0.00000000E+00
  0.00000000E+00  0.00000000E+00  0.00000000E+00
  0.00000000E+00  0.00000000E+00  0.00000000E+00
  0.00000000E+00  0.00000000E+00  0.00000000E+00
  0.00000000E+00  0.00000000E+00  0.00000000E+00
  0.00000000E+00  0.00000000E+00  0.00000000E+00
  0.00000000E+00  0.00000000E+00  0.00000000E+00
  0.00000000E+00  0.00000000E+00  0.00000000E+00
  0.00000000E+00  0.00000000E+00  0.00000000E+00
  0.00000000E+00  0.00000000E+00  0.00000000E+00
  0.00000000E+00  0.00000000E+00  0.00000000E+00
  0.00000000E+00  0.00000000E+00  0.00000000E+00
  0.00000000E+00  0.00000000E+00  0.00000000E+00
  0.00000000E+00  0.00000000E+00  0.00000000E+00
  0.00000000E+00  0.00000000E+00  0.00000000E+00
  0.00000000E+00  0.00000000E+00  0.00000000E+00
  0.00000000E+00  0.00000000E+00  0.00000000E+00
  0.00000000E+00  0.00000000E+00  0.00000000E+00
  0.00000000E+00  0.00000000E+00  0.00000000E+00
  0.00000000E+00  0.00000000E+00  0.00000000E+00
  0.00000000E+00  0.00000000E+00  0.00000000E+00
  0.00000000E+00  0.00000000E+00  0.00000000E+00
  0.00000000E+00  0.00000000E+00  0.00000000E+00
  0.00000000E+00  0.00000000E+00  0.00000000E+00
  0.00000000E+00  0.00000000E+00  0.00000000E+00
  0.00000000E+00  0.00000000E+00  0.00000000E+00
  0.00000000E+00  0.00000000E+00  0.00000000E+00
  0.00000000E+00  0.00000000E+00  0.00000000E+00
