Cu   Ru   Cu   N    O                   
   1.00000000000000     
     7.8488852711706798    0.0000000000000000    0.0000000000000000
     3.9244426355853399    6.7973340362233197    0.0000000000000000
     0.0000000000000000    0.0000000000000000   23.5447839840065001
   Cu   Ru   Cu   N    O 
    31     1     4     1     3
Selective dynamics
Direct
  0.0000000000000000  0.0000000000000000  0.0000000000000000   F   F   F
  0.3333333333333357  0.0000000000000000  0.0000000000000000   F   F   F
  0.6666666666666636  0.0000000000000000  0.0000000000000000   F   F   F
 -0.0000000000000000  0.3333333333333358  0.0000000000000000   F   F   F
  0.3333333333333353  0.3333333333333358  0.0000000000000000   F   F   F
  0.6666666666666636  0.3333333333333358  0.0000000000000000   F   F   F
  0.9999999999999787  0.6666666666666643  0.0000000000000000   F   F   F
  0.3333333333333357  0.6666666666666643  0.0000000000000000   F   F   F
  0.6666666666666636  0.6666666666666643  0.0000000000000000   F   F   F
  0.1111111111111143  0.1111111111111143  0.0907290547856690   F   F   F
  0.4444444444444429  0.1111111111111143  0.0907290547856690   F   F   F
  0.7777777777777786  0.1111111111111143  0.0907290547856690   F   F   F
  0.1111111111111142  0.4444444444444429  0.0907290547856690   F   F   F
  0.4444444444444428  0.4444444444444429  0.0907290547856690   F   F   F
  0.7777777777777778  0.4444444444444429  0.0907290547856690   F   F   F
  0.1111111111111139  0.7777777777777787  0.0907290547856690   F   F   F
  0.4444444444444428  0.7777777777777787  0.0907290547856690   F   F   F
  0.7777777777777785  0.7777777777777787  0.0907290547856690   F   F   F
  0.8868765174075534  0.2255211819062109  0.1806529469029625   T   T   T
  0.2256273957948316  0.2265318248758434  0.1816127070820424   T   T   T
  0.5512251900459381  0.2282441654775686  0.1853348822215471   T   T   T
  0.8880838543697021  0.5585037203523545  0.1793229904030705   T   T   T
  0.2228770134811188  0.5549542295244627  0.1812393905752457   T   T   T
  0.5550016293640420  0.5558179022304243  0.1807719260865945   T   T   T
  0.8842511432081515  0.8916733319777856  0.1806857615665437   T   T   T
  0.2227723839224856  0.8926630786159770  0.1799762659584416   T   T   T
  0.5539018028691467  0.8930837793669488  0.1800135367068895   T   T   T
  0.9990622488516404  0.9995935776803371  0.2671545770628845   T   T   T
  0.3258599899903891  0.0004579363537139  0.2700768020326749   T   T   T
  0.6705282210160532  0.9931186044941825  0.2729902424593015   T   T   T
  0.0009020196633956  0.3413614408573085  0.2671716653314894   T   T   T
  0.3395318715804182  0.3486898755261447  0.2848693901239209   T   T   T
  0.6781557048179278  0.3396663999357371  0.2725400302442927   T   T   T
  0.0028326706727280  0.6684164159880639  0.2699425756169940   T   T   T
  0.3293826780923036  0.6779291444734480  0.2686575320202355   T   T   T
  0.6693575028920468  0.6690110919290395  0.2669824263613604   T   T   T
  0.4720573566275596  0.3921740893756061  0.3701462094234259   T   T   T
  0.4192678436406234  0.4025476645571999  0.4192659047599598   T   T   T
  0.6512643271806483  0.3550277276623652  0.3601385649559927   T   T   T
  0.4247208708932676  0.1105006700414352  0.3254753649889360   T   T   T
 
             NaN             NaN             NaN
             NaN             NaN             NaN
             NaN             NaN             NaN
             NaN             NaN             NaN
             NaN             NaN             NaN
             NaN             NaN             NaN
             NaN             NaN             NaN
             NaN             NaN             NaN
             NaN             NaN             NaN
             NaN             NaN             NaN
             NaN             NaN             NaN
             NaN             NaN             NaN
             NaN             NaN             NaN
             NaN             NaN             NaN
             NaN             NaN             NaN
             NaN             NaN             NaN
             NaN             NaN             NaN
             NaN             NaN             NaN
             NaN             NaN             NaN
             NaN             NaN             NaN
             NaN             NaN             NaN
             NaN             NaN             NaN
             NaN             NaN             NaN
             NaN             NaN             NaN
             NaN             NaN             NaN
             NaN             NaN             NaN
             NaN             NaN             NaN
             NaN             NaN             NaN
             NaN             NaN             NaN
             NaN             NaN             NaN
             NaN             NaN             NaN
             NaN             NaN             NaN
             NaN             NaN             NaN
             NaN             NaN             NaN
             NaN             NaN             NaN
             NaN             NaN             NaN
             NaN             NaN             NaN
             NaN             NaN             NaN
             NaN             NaN             NaN
             NaN             NaN             NaN
