 N  O  H                                
   1.00000000000000     
    15.0000000000000000    0.0000000000000000    0.0000000000000000
     0.0000000000000000   15.0000000000000000    0.0000000000000000
     0.0000000000000000    0.0000000000000000   15.0000000000000000
   N    O    H 
     1     3     1
Direct
  0.4662497924231299  0.4657511256252325  0.4647133281289649
  0.4577448552507553  0.4661223411003743  0.5584837100736686
  0.5422927782323747  0.4657005486066637  0.4339029442613598
  0.3948553504212566  0.4654745340029405  0.4250281526915573
  0.5196396753670406  0.4666809767193745  0.5811520835814331
 
  0.00000000E+00  0.00000000E+00  0.00000000E+00
  0.00000000E+00  0.00000000E+00  0.00000000E+00
  0.00000000E+00  0.00000000E+00  0.00000000E+00
  0.00000000E+00  0.00000000E+00  0.00000000E+00
  0.00000000E+00  0.00000000E+00  0.00000000E+00
