Ni   N    O                             
   1.00000000000000     
     7.5306872196367305    0.0000000000000000    0.0000000000000000
     3.7653436098183701    6.5217664401602100    0.0000000000000000
     0.0000000000000000    0.0000000000000000   23.1983738224927016
   Ni   N    O 
    36     1     3
Selective dynamics
Direct
  0.0000000000000000  0.0000000000000000  0.0000000000000000   F   F   F
  0.3333333333333357  0.0000000000000000  0.0000000000000000   F   F   F
  0.6666666666666643  0.0000000000000000  0.0000000000000000   F   F   F
  0.9999999999999929  0.3333333333333357  0.0000000000000000   F   F   F
  0.3333333333333350  0.3333333333333357  0.0000000000000000   F   F   F
  0.6666666666666634  0.3333333333333357  0.0000000000000000   F   F   F
 -0.0000000000000000  0.6666666666666643  0.0000000000000000   F   F   F
  0.3333333333333355  0.6666666666666643  0.0000000000000000   F   F   F
  0.6666666666666643  0.6666666666666643  0.0000000000000000   F   F   F
  0.1111111111111143  0.1111111111111143  0.0883507383451132   F   F   F
  0.4444444444444426  0.1111111111111143  0.0883507383451132   F   F   F
  0.7777777777777777  0.1111111111111143  0.0883507383451132   F   F   F
  0.1111111111111143  0.4444444444444429  0.0883507383451132   F   F   F
  0.4444444444444428  0.4444444444444429  0.0883507383451132   F   F   F
  0.7777777777777786  0.4444444444444429  0.0883507383451132   F   F   F
  0.1111111111110867  0.7777777777777785  0.0883507383451132   F   F   F
  0.4444444444444426  0.7777777777777785  0.0883507383451132   F   F   F
  0.7777777777777786  0.7777777777777785  0.0883507383451132   F   F   F
  0.8841421292002831  0.2241837592557589  0.1757269361388063   T   T   T
  0.2203158553164060  0.2240060259440574  0.1762131319670645   T   T   T
  0.5517750441597002  0.2251375664891583  0.1776029927970465   T   T   T
  0.8860085753210598  0.5573274626320300  0.1760790490139519   T   T   T
  0.2197492296062552  0.5561161678479942  0.1752594322256951   T   T   T
  0.5525795657321025  0.5547331177683260  0.1774679443263609   T   T   T
  0.8853810384413562  0.8893037195492912  0.1764198717441618   T   T   T
  0.2197644127926047  0.8889810217751860  0.1760280718289648   T   T   T
  0.5531893421851715  0.8900764523682517  0.1757551667917733   T   T   T
  0.9939039466664810  0.0063903253218518  0.2617122783126813   T   T   T
  0.3288505116988165  1.0022184232489493  0.2626674915121320   T   T   T
  0.6577948211272391  1.0024462248119999  0.2640586145919497   T   T   T
 -0.0056754508673413  0.3326771389053316  0.2616142745282901   T   T   T
  0.3245978643133756  0.3347312199266048  0.2684005100954592   T   T   T
  0.6691579447121574  0.3313001738059259  0.2680950099895429   T   T   T
  0.9849348056811803  0.6735439613877476  0.2670071910221363   T   T   T
  0.3256406536340217  0.6748614543680059  0.2667577581075274   T   T   T
  0.6587082663352408  0.6726662417802135  0.2627865887532501   T   T   T
  0.5738790467959737  0.2456596323564473  0.3776176553768499   T   T   T
  0.5348258862490505  0.2969868914641208  0.4275052668704209   T   T   T
  0.6731718520215616  0.3404677580474900  0.3487539618215529   T   T   T
  0.2070061983622206  0.5684220957701517  0.3152116691083423   T   T   T
 
             NaN             NaN             NaN
             NaN             NaN             NaN
             NaN             NaN             NaN
             NaN             NaN             NaN
             NaN             NaN             NaN
             NaN             NaN             NaN
             NaN             NaN             NaN
             NaN             NaN             NaN
             NaN             NaN             NaN
             NaN             NaN             NaN
             NaN             NaN             NaN
             NaN             NaN             NaN
             NaN             NaN             NaN
             NaN             NaN             NaN
             NaN             NaN             NaN
             NaN             NaN             NaN
             NaN             NaN             NaN
             NaN             NaN             NaN
             NaN             NaN             NaN
             NaN             NaN             NaN
             NaN             NaN             NaN
             NaN             NaN             NaN
             NaN             NaN             NaN
             NaN             NaN             NaN
             NaN             NaN             NaN
             NaN             NaN             NaN
             NaN             NaN             NaN
             NaN             NaN             NaN
             NaN             NaN             NaN
             NaN             NaN             NaN
             NaN             NaN             NaN
             NaN             NaN             NaN
             NaN             NaN             NaN
             NaN             NaN             NaN
             NaN             NaN             NaN
             NaN             NaN             NaN
             NaN             NaN             NaN
             NaN             NaN             NaN
             NaN             NaN             NaN
             NaN             NaN             NaN
