Cu  N  O 
 1.0000000000000000
     7.8488852711706798    0.0000000000000000    0.0000000000000000
     0.0000000000000000    7.8488852711706798    0.0000000000000000
     0.0000000000000000    0.0000000000000000   22.3999999999999986
 Cu  N   O  
  36   1   3
Selective dynamics
Cartesian
  1.3081475451950948  1.3081475451950948  0.0000000000000000   F   F   F
  3.9244426355853399  1.3081475451950948  0.0000000000000000   F   F   F
  6.5407377259755854  1.3081475451950948  0.0000000000000000   F   F   F
  1.3081475451950948  3.9244426355853399  0.0000000000000000   F   F   F
  3.9244426355853399  3.9244426355853399  0.0000000000000000   F   F   F
  6.5407377259755854  3.9244426355853399  0.0000000000000000   F   F   F
  1.3081475451950948  6.5407377259755854  0.0000000000000000   F   F   F
  3.9244426355853399  6.5407377259755854  0.0000000000000000   F   F   F
  6.5407377259755854  6.5407377259755854  0.0000000000000000   F   F   F
  0.0000000000000000  0.0000000000000000  1.8499999999999772   F   F   F
  2.6162950903902451  0.0000000000000000  1.8499999999999772   F   F   F
  5.2325901807804298  0.0000000000000000  1.8499999999999772   F   F   F
  0.0000000000000000  2.6162950903902451  1.8499999999999772   F   F   F
  2.6162950903902451  2.6162950903902451  1.8499999999999772   F   F   F
  5.2325901807804298  2.6162950903902451  1.8499999999999772   F   F   F
  0.0000000000000000  5.2325901807804298  1.8499999999999772   F   F   F
  2.6162950903902451  5.2325901807804298  1.8499999999999772   F   F   F
  5.2325901807804298  5.2325901807804298  1.8499999999999772   F   F   F
  1.3250659354083245  1.3255518130318542  3.6820723443821786   F   F   F
  3.9194212453231350  1.3406552485208889  3.6937461324945908   F   F   F
  6.5131853333266934  1.3260029141727223  3.6835554169568376   F   F   F
  1.3209685390377852  3.9147700502220473  3.6786464502256897   F   F   F
  3.9226607500252388  3.9029972186360191  3.6905825693089023   F   F   F
  6.5160380352122864  3.9095285498134658  3.6826041504551936   F   F   F
  1.3049601652531611  6.5387919494404505  3.6660596820094504   F   F   F
  3.9238865321109997  6.5391404482706248  3.6647374867641886   F   F   F
  6.5456465250602305  6.5456272165858227  3.6629743352762087   F   F   F
  7.8478189503701739  0.0048649246444028  5.3943541651204843   F   F   F
  2.6150348946786233  7.8352828251286590  5.3930107597611636   F   F   F
  5.2296034315245317  7.8367155328664353  5.3933220783440428   F   F   F
  7.8324080806415015  2.6143157588077881  5.3890417716896319   F   F   F
  2.5801850117256140  2.5967195758430681  5.5299641724897182   F   F   F
  5.2275581582233741  2.6194541987731195  5.5558141560380658   F   F   F
  7.8461015089789399  5.2336260950919149  5.3906986345746368   F   F   F
  2.6156448186157886  5.2615829354585317  5.3973887305903760   F   F   F
  5.2421693477297451  5.2615183251500852  5.3906258502568187   F   F   F
  3.8155230898651791  3.0551900109651968  8.2056461102367599   T   T   T
  3.7786795050078110  3.2491106938055028  9.4315445185968851   T   T   T
  4.9280773281537043  2.7329067240401317  7.6284621077292023   T   T   T
  2.7281207301870660  3.1853558984983770  7.5005081732116654   T   T   T
