Cu Pd Cu  N  O 
 1.0000000000000000
     7.8488852711706780    0.0000000000000000    0.0000000000000000
     3.9244426355853390    6.7973340362233188    0.0000000000000000
     0.0000000000000000    0.0000000000000000   23.5447839840064646
 Cu  Pd  Cu  N   O  
  31   1   4   1   3
Selective dynamics
Cartesian
  0.0000000000000000  0.0000000000000000  0.0000000000000000   F   F   F
  2.6162950903902447  0.0000000000000000  0.0000000000000000   F   F   F
  5.2325901807804334  0.0000000000000000  0.0000000000000000   F   F   F
  1.3081475451951223  2.2657780120744557  0.0000000000000000   F   F   F
  3.9244426355853670  2.2657780120744557  0.0000000000000000   F   F   F
  6.5407377259755553  2.2657780120744557  0.0000000000000000   F   F   F
  2.6162950903902167  4.5315560241488635  0.0000000000000000   F   F   F
  5.2325901807804618  4.5315560241488635  0.0000000000000000   F   F   F
  7.8488852711706505  4.5315560241488635  0.0000000000000000   F   F   F
  1.3081475451951505  0.7552593373581682  2.1361959960016619   F   F   F
  3.9244426355853395  0.7552593373581682  2.1361959960016619   F   F   F
  6.5407377259755837  0.7552593373581682  2.1361959960016619   F   F   F
  2.6162950903902451  3.0210373494325760  2.1361959960016619   F   F   F
  5.2325901807804343  3.0210373494325760  2.1361959960016619   F   F   F
  7.8488852711706789  3.0210373494325760  2.1361959960016619   F   F   F
  3.9244426355853670  5.2868153615070312  2.1361959960016619   F   F   F
  6.5407377259755561  5.2868153615070312  2.1361959960016619   F   F   F
  9.1570328163658008  5.2868153615070312  2.1361959960016619   F   F   F
  7.8294760169280782  1.5302201159180127  4.2718520391843136   T   T   T
  2.6082146334172207  1.5313322106386029  4.2355247305332533   T   T   T
  5.2582128095494634  1.5351740577241533  4.2458425088530181   T   T   T
  9.1550818782835890  3.7739283623905084  4.2320479915840901   T   T   T
  3.9242845150259793  3.7626809309090117  4.2232310224643639   T   T   T
  6.5488736883102696  3.7554698665000430  4.2731232530187757   T   T   T
 10.4605579385303074  6.0473667216259539  4.2099806262200259   T   T   T
  5.2424442267967217  6.0437272320417863  4.2073801994875373   T   T   T
  7.8540058060315996  6.0317821105284590  4.2331832532200808   T   T   T
  0.0090607717462922 -0.0460773313762066  6.2779566075224897   T   T   T
  2.5991324110178455 -0.0100292010120872  6.2724025715528340   T   T   T
  5.2744366203179940 -0.0045334993306547  6.2772131470721533   T   T   T
  1.3298925683996046  2.1991782804100031  6.3822989267733137   T   T   T
  3.9337034210392154  2.2801783877236517  6.4117927814619815   T   T   T
  6.5770790924443672  2.1644807517965359  6.8224018381771359   T   T   T
  2.6186884477322048  4.5745342879422051  6.2969821882689088   T   T   T
  5.2305391144749240  4.5774965072338727  6.2879264994667423   T   T   T
  7.8398378881993915  4.6498230897052260  6.3735968426389471   T   T   T
  5.6177673885121173  1.7873691917741681  8.6689708226380713   T   T   T
  6.1001956681138694  1.5200747359831526  9.7556566013950423   T   T   T
  6.5773595608091586  3.9009474306890368  7.5414791146608149   T   T   T
  4.3439519880986444  2.0998316828149370  8.6022027769770055   T   T   T

