Pd  N  O 
 1.0000000000000000
     8.4216417639317811    0.0000000000000000    0.0000000000000000
     4.2108208819658905    7.2933557091369128    0.0000000000000000
     0.0000000000000000    0.0000000000000000   24.1683222747312563
 Pd  N   O  
  36   1   3
Selective dynamics
Cartesian
  0.0000000000000000  0.0000000000000000  0.0000000000000000   F   F   F
  2.8072139213105936  0.0000000000000000  0.0000000000000000   F   F   F
  5.6144278426211871  0.0000000000000000  0.0000000000000000   F   F   F
  1.4036069606552968  2.4311185697123041  0.0000000000000000   F   F   F
  4.2108208819658905  2.4311185697123041  0.0000000000000000   F   F   F
  7.0180348032764837  2.4311185697123041  0.0000000000000000   F   F   F
  2.8072139213105936  4.8622371394246082  0.0000000000000000   F   F   F
  5.6144278426211871  4.8622371394246082  0.0000000000000000   F   F   F
  8.4216417639317811  4.8622371394246082  0.0000000000000000   F   F   F
  1.4036069606552968  0.8103728565707680  2.2920805686828145   F   F   F
  4.2108208819658905  0.8103728565707680  2.2920805686828145   F   F   F
  7.0180348032764845  0.8103728565707680  2.2920805686828145   F   F   F
  2.8072139213105936  3.2414914262830719  2.2920805686828145   F   F   F
  5.6144278426211871  3.2414914262830719  2.2920805686828145   F   F   F
  8.4216417639317811  3.2414914262830719  2.2920805686828145   F   F   F
  4.2108208819658905  5.6726099959953764  2.2920805686828145   F   F   F
  7.0180348032764837  5.6726099959953764  2.2920805686828145   F   F   F
  9.8252487245870785  5.6726099959953764  2.2920805686828145   F   F   F
 -0.0000000000000001  1.6207457131415359  4.5841611373656290   T   T   T
  2.8072139213105936  1.6207457131415359  4.5841611373656290   T   T   T
  5.6144278426211871  1.6207457131415359  4.5841611373656290   T   T   T
  1.4036069606552966  4.0518642828538400  4.5841611373656290   T   T   T
  4.2108208819658905  4.0518642828538400  4.5841611373656290   T   T   T
  7.0180348032764845  4.0518642828538400  4.5841611373656290   T   T   T
  2.8072139213105936  6.4829828525661437  4.5841611373656290   T   T   T
  5.6144278426211871  6.4829828525661437  4.5841611373656290   T   T   T
  8.4216417639317811  6.4829828525661437  4.5841611373656290   T   T   T
  0.0000000000000000  0.0000000000000000  6.8762417060484431   T   T   T
  2.8072139213105936  0.0000000000000000  6.8762417060484431   T   T   T
  5.6144278426211871  0.0000000000000000  6.8762417060484431   T   T   T
  1.4036069606552968  2.4311185697123041  6.8762417060484431   T   T   T
  4.2108208819658905  2.4311185697123041  6.8762417060484431   T   T   T
  7.0180348032764837  2.4311185697123041  6.8762417060484431   T   T   T
  2.8072139213105936  4.8622371394246082  6.8762417060484431   T   T   T
  5.6144278426211871  4.8622371394246082  6.8762417060484431   T   T   T
  8.4216417639317811  4.8622371394246082  6.8762417060484431   T   T   T
  5.3521075124993001  2.3999999999999999  8.8236927411881396   T   T   T
  4.7277450124992999  2.3999999999999999  9.9051203135288635   T   T   T
  6.6022894750014007  2.3999999999999999  8.8225980634283321   T   T   T
  4.2178579999999997  4.1000000000000005  7.9502027060484455   T   T   T

