Pd   N    O 
   1.00000000000000     
   8.4216417639317793   0.0000000000000000   0.0000000000000000
   0.0000000000000000   8.4216417639317793   0.0000000000000000
   0.0000000000000000   0.0000000000000000  22.9400000000000013
Pd   N    O 
36  1  3  
Selective dynamics
Direct
  0.1666666666666643  0.1666666666666643  0.0000000000000000 F F F
  0.5000000000000000  0.1666666666666643  0.0000000000000000 F F F
  0.8333333333333356  0.1666666666666643  0.0000000000000000 F F F
  0.1666666666666643  0.5000000000000000  0.0000000000000000 F F F
  0.5000000000000000  0.5000000000000000  0.0000000000000000 F F F
  0.8333333333333356  0.5000000000000000  0.0000000000000000 F F F
  0.1666666666666643  0.8333333333333356  0.0000000000000000 F F F
  0.5000000000000000  0.8333333333333356  0.0000000000000000 F F F
  0.8333333333333356  0.8333333333333356  0.0000000000000000 F F F
  0.0000000000000000  0.0000000000000000  0.0865300784655645 F F F
  0.3333333333333357  0.0000000000000000  0.0865300784655645 F F F
  0.6666666666666643  0.0000000000000000  0.0865300784655645 F F F
  0.0000000000000000  0.3333333333333357  0.0865300784655645 F F F
  0.3333333333333357  0.3333333333333357  0.0865300784655645 F F F
  0.6666666666666643  0.3333333333333357  0.0865300784655645 F F F
  0.0000000000000000  0.6666666666666643  0.0865300784655645 F F F
  0.3333333333333357  0.6666666666666643  0.0865300784655645 F F F
  0.6666666666666643  0.6666666666666643  0.0865300784655645 F F F
  0.1659030764759969  0.1672159761216370  0.1730029916081536 T T T
  0.4985227488928378  0.1687545391533005  0.1735543122038577 T T T
  0.8314513488614214  0.1678055824156846  0.1729250820804839 T T T
  0.1659030561255375  0.4994496117503560  0.1730028902716225 T T T
  0.4985229600648389  0.4979116237943152  0.1735542553394032 T T T
  0.8314515823805899  0.4988619721625519  0.1729250532790061 T T T
  0.1661818334832537  0.8333352792427378  0.1720219417167030 T T T
  0.5001258901306455  0.8333331340956770  0.1720523912295568 T T T
  0.8330166437835033  0.8333334676029396  0.1721462640148919 T T T
  0.9988439118603120  0.9983529729704320  0.2581952162879241 T T T
  0.3329459972394926  0.9976986064657276  0.2576680250199012 T T T
  0.6670130423405114  0.9981338066530778  0.2582862223341585 T T T
  0.9952728988439108  0.3333333033468968  0.2584046980253763 T T T
  0.3364151808453905  0.3333322396969918  0.2618449674313519 T T T
  0.6671627626112152  0.3333336837614070  0.2617549938660428 T T T
  0.9988441837320488  0.6683133219011015  0.2581954173460080 T T T
  0.3329456551846875  0.6689656707379349  0.2576678277500233 T T T
  0.6670128927430030  0.6685331775445248  0.2582860812937199 T T T
  0.3765481299636110  0.3333335754431355  0.3890624070076159 T T T
  0.3326693631096452  0.3333347289658808  0.4402646517157289 T T T
  0.5191752228979654  0.3333328292187442  0.3725642568883602 T T T
  0.2589197831955894  0.3333331411784733  0.3480587783017530 T T T
