Rh                                      
   1.00000000000000     
     8.2095097295758173    0.0000000000000000    0.0000000000000000
     4.1047548647879086    7.1096439784281742    0.0000000000000000
     0.0000000000000000    0.0000000000000000   23.9373821670554108
   Rh
    36
Selective dynamics
Direct
  0.0000000000000000  0.0000000000000000  0.0000000000000000   F   F   F
  0.3333333333333357  0.0000000000000000  0.0000000000000000   F   F   F
  0.6666666666666643  0.0000000000000000  0.0000000000000000   F   F   F
  0.0000000000000000  0.3333333333333357  0.0000000000000000   F   F   F
  0.3333333333333357  0.3333333333333357  0.0000000000000000   F   F   F
  0.6666666666666643  0.3333333333333357  0.0000000000000000   F   F   F
  0.0000000000000000  0.6666666666666643  0.0000000000000000   F   F   F
  0.3333333333333357  0.6666666666666643  0.0000000000000000   F   F   F
  0.6666666666666643  0.6666666666666643  0.0000000000000000   F   F   F
  0.1111111111111143  0.1111111111111143  0.0933412653969725   F   F   F
  0.4444444444444429  0.1111111111111143  0.0933412653969725   F   F   F
  0.7777777777777786  0.1111111111111143  0.0933412653969725   F   F   F
  0.1111111111111143  0.4444444444444429  0.0933412653969725   F   F   F
  0.4444444444444429  0.4444444444444429  0.0933412653969725   F   F   F
  0.7777777777777786  0.4444444444444429  0.0933412653969725   F   F   F
  0.1111111111111143  0.7777777777777786  0.0933412653969725   F   F   F
  0.4444444444444429  0.7777777777777786  0.0933412653969725   F   F   F
  0.7777777777777786  0.7777777777777786  0.0933412653969725   F   F   F
  0.8888888888888857  0.2222222222222214  0.1838754799286022   T   T   T
  0.2222222222222214  0.2222222222222214  0.1838754799286022   T   T   T
  0.5555555555555571  0.2222222222222214  0.1838754799286022   T   T   T
  0.8888888888888857  0.5555555555555571  0.1838754799286022   T   T   T
  0.2222222222222214  0.5555555555555571  0.1838754799286022   T   T   T
  0.5555555555555571  0.5555555555555571  0.1838754799286022   T   T   T
  0.8888888888888857  0.8888888888888857  0.1838754799286022   T   T   T
  0.2222222222222214  0.8888888888888857  0.1838754799286022   T   T   T
  0.5555555555555571  0.8888888888888857  0.1838754799286022   T   T   T
  0.0000000000000000  0.0000000000000000  0.2754106730940507   T   T   T
  0.3333333333333357  0.0000000000000000  0.2754106730940507   T   T   T
  0.6666666666666643  0.0000000000000000  0.2754106730940507   T   T   T
  0.0000000000000000  0.3333333333333357  0.2754106730940507   T   T   T
  0.3333333333333357  0.3333333333333357  0.2754106730940507   T   T   T
  0.6666666666666643  0.3333333333333357  0.2754106730940507   T   T   T
  0.0000000000000000  0.6666666666666643  0.2754106730940507   T   T   T
  0.3333333333333357  0.6666666666666643  0.2754106730940507   T   T   T
  0.6666666666666643  0.6666666666666643  0.2754106730940507   T   T   T
 
  0.00000000E+00  0.00000000E+00  0.00000000E+00
  0.00000000E+00  0.00000000E+00  0.00000000E+00
  0.00000000E+00  0.00000000E+00  0.00000000E+00
  0.00000000E+00  0.00000000E+00  0.00000000E+00
  0.00000000E+00  0.00000000E+00  0.00000000E+00
  0.00000000E+00  0.00000000E+00  0.00000000E+00
  0.00000000E+00  0.00000000E+00  0.00000000E+00
  0.00000000E+00  0.00000000E+00  0.00000000E+00
  0.00000000E+00  0.00000000E+00  0.00000000E+00
  0.00000000E+00  0.00000000E+00  0.00000000E+00
  0.00000000E+00  0.00000000E+00  0.00000000E+00
  0.00000000E+00  0.00000000E+00  0.00000000E+00
  0.00000000E+00  0.00000000E+00  0.00000000E+00
  0.00000000E+00  0.00000000E+00  0.00000000E+00
  0.00000000E+00  0.00000000E+00  0.00000000E+00
  0.00000000E+00  0.00000000E+00  0.00000000E+00
  0.00000000E+00  0.00000000E+00  0.00000000E+00
  0.00000000E+00  0.00000000E+00  0.00000000E+00
  0.00000000E+00  0.00000000E+00  0.00000000E+00
  0.00000000E+00  0.00000000E+00  0.00000000E+00
  0.00000000E+00  0.00000000E+00  0.00000000E+00
  0.00000000E+00  0.00000000E+00  0.00000000E+00
  0.00000000E+00  0.00000000E+00  0.00000000E+00
  0.00000000E+00  0.00000000E+00  0.00000000E+00
  0.00000000E+00  0.00000000E+00  0.00000000E+00
  0.00000000E+00  0.00000000E+00  0.00000000E+00
  0.00000000E+00  0.00000000E+00  0.00000000E+00
  0.00000000E+00  0.00000000E+00  0.00000000E+00
  0.00000000E+00  0.00000000E+00  0.00000000E+00
  0.00000000E+00  0.00000000E+00  0.00000000E+00
  0.00000000E+00  0.00000000E+00  0.00000000E+00
  0.00000000E+00  0.00000000E+00  0.00000000E+00
  0.00000000E+00  0.00000000E+00  0.00000000E+00
  0.00000000E+00  0.00000000E+00  0.00000000E+00
  0.00000000E+00  0.00000000E+00  0.00000000E+00
  0.00000000E+00  0.00000000E+00  0.00000000E+00
