Pd  N  O                                
   1.00000000000000     
     8.4216417639317793    0.0000000000000000    0.0000000000000000
     4.2108208819658897    7.2933557091369101    0.0000000000000000
     0.0000000000000000    0.0000000000000000   24.1683222747312989
   Pd   N    O 
    36     1     3
Selective dynamics
Direct
  0.0000000000000000  0.0000000000000000  0.0000000000000000   F   F   F
  0.3333333333333357  0.0000000000000000  0.0000000000000000   F   F   F
  0.6666666666666643  0.0000000000000000  0.0000000000000000   F   F   F
  0.0000000000000000  0.3333333333333357  0.0000000000000000   F   F   F
  0.3333333333333357  0.3333333333333357  0.0000000000000000   F   F   F
  0.6666666666666643  0.3333333333333357  0.0000000000000000   F   F   F
  0.0000000000000000  0.6666666666666643  0.0000000000000000   F   F   F
  0.3333333333333357  0.6666666666666643  0.0000000000000000   F   F   F
  0.6666666666666643  0.6666666666666643  0.0000000000000000   F   F   F
  0.1111111111111143  0.1111111111111143  0.0948382160179690   F   F   F
  0.4444444444444429  0.1111111111111143  0.0948382160179690   F   F   F
  0.7777777777777786  0.1111111111111143  0.0948382160179690   F   F   F
  0.1111111111111143  0.4444444444444429  0.0948382160179690   F   F   F
  0.4444444444444429  0.4444444444444429  0.0948382160179690   F   F   F
  0.7777777777777786  0.4444444444444429  0.0948382160179690   F   F   F
  0.1111111111111143  0.7777777777777786  0.0948382160179690   F   F   F
  0.4444444444444429  0.7777777777777786  0.0948382160179690   F   F   F
  0.7777777777777786  0.7777777777777786  0.0948382160179690   F   F   F
  0.8906507180155927  0.2249126343131280  0.1888112388592873   F   F   F
  0.2233215810200520  0.2248478218946843  0.1890800181683545   F   F   F
  0.5566231933261960  0.2256401387299434  0.1888972894838545   F   F   F
  0.8899254490564630  0.5594680601764068  0.1890625605961276   F   F   F
  0.2235120617937127  0.5567874105532553  0.1914919836047773   F   F   F
  0.5560528063955772  0.5597734878942475  0.1888616352395687   F   F   F
  0.8867794086028695  0.8935050096166890  0.1918075537920174   F   F   F
  0.2232837923657627  0.8924995428910165  0.1898168323699565   F   F   F
  0.5558861843776981  0.8928843738564396  0.1893368508254127   F   F   F
  0.0052623816607493  0.0083270585667847  0.2855225254696023   F   F   F
  0.3334834944474636  0.0064226239718295  0.2861160851647426   F   F   F
  0.6768718253132775  0.0067133807362012  0.2868376678455391   F   F   F
  0.0006708868181562  0.3430241795354334  0.2839091044116628   F   F   F
  0.3320112757397453  0.3499833530536876  0.2853637477558735   F   F   F
  0.6714954756516178  0.3440758444578478  0.2832482958289546   F   F   F
  0.0027664566677075  0.6756017652923134  0.2859062321733461   F   F   F
  0.3362239834706244  0.6772128575325667  0.2854296958342815   F   F   F
  0.6704216408562402  0.6740163532570023  0.2840703125750750   F   F   F
  0.4990385984160568  0.2191617351686972  0.4078981436143110   T   T   T
  0.3776403029048367  0.2536418078574627  0.4406367604791299   T   T   T
  0.6391949954202687  0.2260212236882566  0.4099916570587752   T   T   T
  0.4631796731293818  0.1372065227546528  0.3431358985231621   T   T   T
 
  0.00000000E+00  0.00000000E+00  0.00000000E+00
  0.00000000E+00  0.00000000E+00  0.00000000E+00
  0.00000000E+00  0.00000000E+00  0.00000000E+00
  0.00000000E+00  0.00000000E+00  0.00000000E+00
  0.00000000E+00  0.00000000E+00  0.00000000E+00
  0.00000000E+00  0.00000000E+00  0.00000000E+00
  0.00000000E+00  0.00000000E+00  0.00000000E+00
  0.00000000E+00  0.00000000E+00  0.00000000E+00
  0.00000000E+00  0.00000000E+00  0.00000000E+00
  0.00000000E+00  0.00000000E+00  0.00000000E+00
  0.00000000E+00  0.00000000E+00  0.00000000E+00
  0.00000000E+00  0.00000000E+00  0.00000000E+00
  0.00000000E+00  0.00000000E+00  0.00000000E+00
  0.00000000E+00  0.00000000E+00  0.00000000E+00
  0.00000000E+00  0.00000000E+00  0.00000000E+00
  0.00000000E+00  0.00000000E+00  0.00000000E+00
  0.00000000E+00  0.00000000E+00  0.00000000E+00
  0.00000000E+00  0.00000000E+00  0.00000000E+00
  0.00000000E+00  0.00000000E+00  0.00000000E+00
  0.00000000E+00  0.00000000E+00  0.00000000E+00
  0.00000000E+00  0.00000000E+00  0.00000000E+00
  0.00000000E+00  0.00000000E+00  0.00000000E+00
  0.00000000E+00  0.00000000E+00  0.00000000E+00
  0.00000000E+00  0.00000000E+00  0.00000000E+00
  0.00000000E+00  0.00000000E+00  0.00000000E+00
  0.00000000E+00  0.00000000E+00  0.00000000E+00
  0.00000000E+00  0.00000000E+00  0.00000000E+00
  0.00000000E+00  0.00000000E+00  0.00000000E+00
  0.00000000E+00  0.00000000E+00  0.00000000E+00
  0.00000000E+00  0.00000000E+00  0.00000000E+00
  0.00000000E+00  0.00000000E+00  0.00000000E+00
  0.00000000E+00  0.00000000E+00  0.00000000E+00
  0.00000000E+00  0.00000000E+00  0.00000000E+00
  0.00000000E+00  0.00000000E+00  0.00000000E+00
  0.00000000E+00  0.00000000E+00  0.00000000E+00
  0.00000000E+00  0.00000000E+00  0.00000000E+00
  0.00000000E+00  0.00000000E+00  0.00000000E+00
  0.00000000E+00  0.00000000E+00  0.00000000E+00
  0.00000000E+00  0.00000000E+00  0.00000000E+00
  0.00000000E+00  0.00000000E+00  0.00000000E+00
