Pd   N    O 
   1.00000000000000     
   8.4216417639317793   0.0000000000000000   0.0000000000000000
   0.0000000000000000   8.4216417639317793   0.0000000000000000
   0.0000000000000000   0.0000000000000000  22.9400000000000013
Pd   N    O 
36  1  3  
Selective dynamics
Direct
  0.1666666666666640  0.1666666666666640  0.0000000000000000 F F F
  0.5000000000000000  0.1666666666666640  0.0000000000000000 F F F
  0.8333333333333360  0.1666666666666640  0.0000000000000000 F F F
  0.1666666666666640  0.5000000000000000  0.0000000000000000 F F F
  0.5000000000000000  0.5000000000000000  0.0000000000000000 F F F
  0.8333333333333360  0.5000000000000000  0.0000000000000000 F F F
  0.1666666666666640  0.8333333333333360  0.0000000000000000 F F F
  0.5000000000000000  0.8333333333333360  0.0000000000000000 F F F
  0.8333333333333360  0.8333333333333360  0.0000000000000000 F F F
  0.0000000000000000  0.0000000000000000  0.0865300784655645 F F F
  0.3333333333333360  0.0000000000000000  0.0865300784655645 F F F
  0.6666666666666640  0.0000000000000000  0.0865300784655645 F F F
  0.0000000000000000  0.3333333333333360  0.0865300784655645 F F F
  0.3333333333333360  0.3333333333333360  0.0865300784655645 F F F
  0.6666666666666640  0.3333333333333360  0.0865300784655645 F F F
  0.0000000000000000  0.6666666666666640  0.0865300784655645 F F F
  0.3333333333333360  0.6666666666666640  0.0865300784655645 F F F
  0.6666666666666640  0.6666666666666640  0.0865300784655645 F F F
  0.1673535116687500  0.1674081146738120  0.1731535792354530 T T T
  0.5004850186971270  0.1685871119849120  0.1734956023205640 T T T
  0.8342363449282930  0.1678567241563580  0.1729842586665740 T T T
  0.1673534965642030  0.4992580809706770  0.1731531353379410 T T T
  0.5004847779868410  0.4980807057163050  0.1734956027527090 T T T
  0.8342361169548270  0.4988093175815040  0.1729841886727140 T T T
  0.1666877396311220  0.8333332905875250  0.1719833090569550 T T T
  0.5006616175117810  0.8333341612178840  0.1720639568459390 T T T
  0.8332779642756381  0.8333336514927721  0.1721237533461490 T T T
  0.9999406827213591  0.9978117641866500  0.2581017416516150 T T T
  0.3342294009593590  0.9973777529975150  0.2576867226958580 T T T
  0.6682313741498550  0.9983689691594080  0.2584311711374880 T T T
  0.9985011828401940  0.3333328781740190  0.2605009705166240 T T T
  0.3429704321161890  0.3333342302431670  0.2611516806317340 T T T
  0.6721152235748490  0.3333341392349280  0.2606218034915740 T T T
  0.9999416395667280  0.6688538101800960  0.2581016271483420 T T T
  0.3342290889600360  0.6692889327194180  0.2576865542383970 T T T
  0.6682301465977720  0.6682987517725389  0.2584310671597120 T T T
  0.3521197209011650  0.3333327436097730  0.3924423300187030 T T T
  0.2969924510618470  0.3333330400338570  0.4419852905850950 T T T
  0.4953484038383000  0.3333317459570040  0.3786049579296960 T T T
  0.2284710786153710  0.3333334570088130  0.3388313636475570 T T T
