Cu  N  O 
 1.0000000000000000
     7.8488619999999996    0.0000000000000000    0.0000000000000000
     3.9244420000000000    6.7973340000000002    0.0000000000000000
     0.0000000000000000    0.0000000000000000   23.5447869999999995
 Cu  N   O  
  36   1   3
Cartesian
  0.0000000000000000  0.0000000000000000  0.0000000000000000
  2.6162950000000000  0.0000000000000000  0.0000000000000000
  5.2325900000000001  0.0000000000000000  0.0000000000000000
  1.3081480000000001  2.2657780000000001  0.0000000000000000
  3.9244430000000001  2.2657780000000001  0.0000000000000000
  6.5407380000000002  2.2657780000000001  0.0000000000000000
 10.4651800000000001  4.5315560000000001  0.0000000000000000
  5.2325900000000001  4.5315560000000001  0.0000000000000000
  7.8488850000000001  4.5315560000000001  0.0000000000000000
  1.3081480000000001  0.7552590000000000  2.1361960000000000
  3.9244430000000001  0.7552590000000000  2.1361960000000000
  6.5407380000000002  0.7552590000000000  2.1361960000000000
  2.6162950000000000  3.0210370000000002  2.1361960000000000
  5.2325900000000001  3.0210370000000002  2.1361960000000000
  7.8488850000000001  3.0210370000000002  2.1361960000000000
  3.9244430000000001  5.2868149999999998  2.1361960000000000
  6.5407380000000002  5.2868149999999998  2.1361960000000000
  9.1570330000000002  5.2868149999999998  2.1361960000000000
  7.8429770000000003  1.5066550000000001  4.2114130000000003
  2.6257320000000002  1.5163240000000000  4.2505350000000002
  5.2099270000000004  1.5162080000000000  4.2473580000000002
  9.1641379999999995  3.7825099999999998  4.2502480000000000
  3.9157999999999999  3.7746290000000000  4.2618400000000003
  6.5188519999999999  3.7821020000000001  4.2480490000000000
 10.4563939999999995  6.0203959999999999  4.2500640000000001
  5.2269410000000001  6.0196490000000002  4.2509709999999998
  7.8421380000000003  6.0381780000000003  4.2200860000000002
 -0.0096890000000000  0.0259430000000000  6.3008670000000002
  6.5364259999999996  6.7892029999999997  6.3149020000000000
  9.1382899999999996  6.7906730000000000  6.3121130000000001
  1.2699469999999999  2.2438460000000000  6.3018039999999997
  3.9187799999999999  2.2086260000000002  6.4182370000000004
  6.5603710000000000  2.2434580000000000  6.2985059999999997
 10.3991299999999995  4.5582490000000000  6.4256209999999996
  5.2699850000000001  4.5491070000000002  6.4232129999999996
  7.8358720000000002  4.5354159999999997  6.3143140000000004
  3.9016419999999998  3.7535069999999999  9.5436280000000000
  2.9288180000000001  4.2712870000000001  9.9975190000000005
  4.8748500000000003  3.2233250000000000  9.9826879999999996
  3.8979970000000002  3.7779340000000001  7.6826600000000003
