Cu  N  O 
 1.0000000000000000
     7.8488852711706798    0.0000000000000000    0.0000000000000000
     3.9244426355853399    6.7973340362233197    0.0000000000000000
     0.0000000000000000    0.0000000000000000   23.5447839840065001
 Cu  N   O  
  36   1   3
Selective dynamics
Cartesian
  0.0000000000000000  0.0000000000000000  0.0000000000000000   F   F   F
  2.6162950903902451  0.0000000000000000  0.0000000000000000   F   F   F
  5.2325901807804298  0.0000000000000000  0.0000000000000000   F   F   F
  1.3081475451951230  2.2657780120744566  0.0000000000000000   F   F   F
  3.9244426355853612  2.2657780120744566  0.0000000000000000   F   F   F
  6.5407377259755526  2.2657780120744566  0.0000000000000000   F   F   F
 10.4651803615607832  4.5315560241488635  0.0000000000000000   F   F   F
  5.2325901807804627  4.5315560241488635  0.0000000000000000   F   F   F
  7.8488852711706469  4.5315560241488635  0.0000000000000000   F   F   F
  1.3081475451951508  0.7552593373581683  2.1361959960016681   F   F   F
  3.9244426355853403  0.7552593373581683  2.1361959960016681   F   F   F
  6.5407377259755854  0.7552593373581683  2.1361959960016681   F   F   F
  2.6162950903902447  3.0210373494325760  2.1361959960016681   F   F   F
  5.2325901807804343  3.0210373494325760  2.1361959960016681   F   F   F
  7.8488852711706665  3.0210373494325760  2.1361959960016681   F   F   F
  3.9244426355853643  5.2868153615070321  2.1361959960016681   F   F   F
  6.5407377259755570  5.2868153615070321  2.1361959960016681   F   F   F
  9.1570328163658026  5.2868153615070321  2.1361959960016681   F   F   F
  7.8501321126229637  1.5094467761927308  4.2011229362968381   F   F   F
  2.6333500273758657  1.5187063920564381  4.2274848203599618   F   F   F
  5.2282085351265284  1.5210975632587873  4.2271511566943305   F   F   F
  9.1639304238204939  3.7741893198520833  4.2133268186335053   F   F   F
  3.9221912735076021  3.7780360877578096  4.2365200653877348   F   F   F
  6.5280922433367445  3.7749155579710192  4.2290505789495061   F   F   F
 10.4703472194360501  6.0367092306111649  4.2136883526162183   F   F   F
  5.2338480638697327  6.0211589326546502  4.2301015818046164   F   F   F
  7.8504747464394766  6.0409245640155831  4.2014569772901371   F   F   F
  7.8479820586409188  0.0093925501611635  6.2627097610050866   F   F   F
  6.5442983988444947  6.7948090994877077  6.2682263138029573   F   F   F
  9.1532157552642452  6.7974676862282646  6.2669440848876414   F   F   F
  9.1475222217177219  2.2611293879493197  6.2619306569311783   F   F   F
  3.9172166967349993  2.2285921839249228  6.3180696288643556   F   F   F
  6.5763885546881564  2.2445317634837219  6.2782007705670146   F   F   F
 10.3988949628493259  4.5694371820938402  6.2821829915335670   F   F   F
  5.2601998595284636  4.5545650752685889  6.3288360360330671   F   F   F
  7.8466729936688520  4.5346212453280499  6.2669809238305509   F   F   F
  4.6972700512061776  3.3187503652895840  9.1857009753840462   T   T   T
  4.0398555138552723  3.6649807135004497 10.1725186359721960   T   T   T
  5.7851110612557424  2.7166881376933927  9.2002281525923468   T   T   T
  4.1580213696943487  3.6389636657635456  7.9469455560606317   T   T   T
