Rh   N    O 
   1.00000000000000     
   8.2095097295758208   0.0000000000000000   0.0000000000000000
   0.0000000000000000   8.2095097295758208   0.0000000000000000
   0.0000000000000000   0.0000000000000000  22.7399999999999984
Rh   N    O 
36  1  3  
Selective dynamics
Direct
  0.1666666666666643  0.1666666666666643  0.0000000000000000 F F F
  0.5000000000000000  0.1666666666666643  0.0000000000000000 F F F
  0.8333333333333357  0.1666666666666643  0.0000000000000000 F F F
  0.1666666666666643  0.5000000000000000  0.0000000000000000 F F F
  0.5000000000000000  0.5000000000000000  0.0000000000000000 F F F
  0.8333333333333357  0.5000000000000000  0.0000000000000000 F F F
  0.1666666666666643  0.8333333333333357  0.0000000000000000 F F F
  0.5000000000000000  0.8333333333333357  0.0000000000000000 F F F
  0.8333333333333357  0.8333333333333357  0.0000000000000000 F F F
  0.0000000000000000  0.0000000000000000  0.0850923482849595 F F F
  0.3333333333333357  0.0000000000000000  0.0850923482849595 F F F
  0.6666666666666643  0.0000000000000000  0.0850923482849595 F F F
  0.0000000000000000  0.3333333333333357  0.0850923482849595 F F F
  0.3333333333333357  0.3333333333333357  0.0850923482849595 F F F
  0.6666666666666643  0.3333333333333357  0.0850923482849595 F F F
  0.0000000000000000  0.6666666666666643  0.0850923482849595 F F F
  0.3333333333333357  0.6666666666666643  0.0850923482849595 F F F
  0.6666666666666643  0.6666666666666643  0.0850923482849595 F F F
  0.1690771327365243  0.1678434519193547  0.1692441281890674 T T T
  0.4984298734879694  0.1694074734917974  0.1706557609150675 T T T
  0.8340823554817705  0.1689476740149066  0.1695272026255151 T T T
  0.1701613161773682  0.4985079693224223  0.1697670346534208 T T T
  0.4985813854503727  0.4979603338927765  0.1705703045429332 T T T
  0.8351011743087644  0.4971482559727296  0.1697865022244540 T T T
  0.1673760954926659  0.8334507672545282  0.1685655134571336 T T T
  0.5008383213682317  0.8336023390860217  0.1684237147537944 T T T
  0.8332707631188312  0.8333589546607979  0.1674701608953778 T T T
  0.9992726651031208  0.9958619995328420  0.2496200093749728 T T T
  0.3338822106254593  0.9963413118739880  0.2503314440640435 T T T
  0.6688882609419591  0.9966973578199996  0.2493848819406717 T T T
  0.9953145293544500  0.3335781345593853  0.2536079117972474 T T T
  0.3433813162146662  0.3309968153144259  0.2690151598821451 T T T
  0.6743753816455113  0.3339912359172235  0.2527908451678655 T T T
  0.9991083123728228  0.6731498681710121  0.2498298964966165 T T T
  0.3354457390283462  0.6724362817205860  0.2503398295239044 T T T
  0.6685462462852253  0.6696957285590758  0.2494486608915907 T T T
  0.4639217735981570  0.3201862709695078  0.3469796108820152 T T T
  0.4058097755153621  0.3124079044620433  0.3961824767428777 T T T
  0.6250742724251149  0.3228311709931079  0.3418695395029776 T T T
  0.1427946939028882  0.3536912464063293  0.3141233407477347 T T T
