Rh                                      
   1.00000000000000     
     8.2095097295758173    0.0000000000000000    0.0000000000000000
     4.1047548647879086    7.1096439784281742    0.0000000000000000
     0.0000000000000000    0.0000000000000000   23.9373821670554108
   Rh
    36
Selective dynamics
Direct
  0.0000000000000000  0.0000000000000000  0.0000000000000000   F   F   F
  0.3333333333333357  0.0000000000000000  0.0000000000000000   F   F   F
  0.6666666666666643  0.0000000000000000  0.0000000000000000   F   F   F
  0.0000000000000000  0.3333333333333357  0.0000000000000000   F   F   F
  0.3333333333333357  0.3333333333333357  0.0000000000000000   F   F   F
  0.6666666666666643  0.3333333333333357  0.0000000000000000   F   F   F
  0.0000000000000000  0.6666666666666643  0.0000000000000000   F   F   F
  0.3333333333333357  0.6666666666666643  0.0000000000000000   F   F   F
  0.6666666666666643  0.6666666666666643  0.0000000000000000   F   F   F
  0.1111111111111143  0.1111111111111143  0.0933412653969725   F   F   F
  0.4444444444444429  0.1111111111111143  0.0933412653969725   F   F   F
  0.7777777777777786  0.1111111111111143  0.0933412653969725   F   F   F
  0.1111111111111143  0.4444444444444429  0.0933412653969725   F   F   F
  0.4444444444444429  0.4444444444444429  0.0933412653969725   F   F   F
  0.7777777777777786  0.4444444444444429  0.0933412653969725   F   F   F
  0.1111111111111143  0.7777777777777786  0.0933412653969725   F   F   F
  0.4444444444444429  0.7777777777777786  0.0933412653969725   F   F   F
  0.7777777777777786  0.7777777777777786  0.0933412653969725   F   F   F
  0.8888892722563172  0.2222211550683213  0.1838742572218142   T   T   T
  0.2222220414616259  0.2222219500192843  0.1838740419311368   T   T   T
  0.5555557371049378  0.2222216465417222  0.1838737411492796   T   T   T
  0.8888882542790097  0.5555550338377305  0.1838741724807745   T   T   T
  0.2222229768622476  0.5555553635494648  0.1838737692231555   T   T   T
  0.5555551552862669  0.5555556894872244  0.1838741401885149   T   T   T
  0.8888885230845542  0.8888902170257676  0.1838740983044110   T   T   T
  0.2222213464560583  0.8888889336619694  0.1838743236342668   T   T   T
  0.5555555533502876  0.8888888583436533  0.1838742154913384   T   T   T
  0.0000018080136981  0.0000000690537975  0.2753871037085632   T   T   T
  0.3333327942642628 -0.0000004406734389  0.2753882763802751   T   T   T
  0.6666677302667273 -0.0000024794380631  0.2753871767755623   T   T   T
 -0.0000000072375110  0.3333336041771937  0.2753875459941045   T   T   T
  0.3333312888034279  0.3333333440150751  0.2753869126717330   T   T   T
  0.6666690884166159  0.3333341287878308  0.2753876730949649   T   T   T
 -0.0000012219026298  0.6666669429804796  0.2753883304266552   T   T   T
  0.3333328476004047  0.6666695441064665  0.2753871668414144   T   T   T
  0.6666674872683296  0.6666670950060675  0.2753875431096013   T   T   T
 
  0.00000000E+00  0.00000000E+00  0.00000000E+00
  0.00000000E+00  0.00000000E+00  0.00000000E+00
  0.00000000E+00  0.00000000E+00  0.00000000E+00
  0.00000000E+00  0.00000000E+00  0.00000000E+00
  0.00000000E+00  0.00000000E+00  0.00000000E+00
  0.00000000E+00  0.00000000E+00  0.00000000E+00
  0.00000000E+00  0.00000000E+00  0.00000000E+00
  0.00000000E+00  0.00000000E+00  0.00000000E+00
  0.00000000E+00  0.00000000E+00  0.00000000E+00
  0.00000000E+00  0.00000000E+00  0.00000000E+00
  0.00000000E+00  0.00000000E+00  0.00000000E+00
  0.00000000E+00  0.00000000E+00  0.00000000E+00
  0.00000000E+00  0.00000000E+00  0.00000000E+00
  0.00000000E+00  0.00000000E+00  0.00000000E+00
  0.00000000E+00  0.00000000E+00  0.00000000E+00
  0.00000000E+00  0.00000000E+00  0.00000000E+00
  0.00000000E+00  0.00000000E+00  0.00000000E+00
  0.00000000E+00  0.00000000E+00  0.00000000E+00
  0.00000000E+00  0.00000000E+00  0.00000000E+00
  0.00000000E+00  0.00000000E+00  0.00000000E+00
  0.00000000E+00  0.00000000E+00  0.00000000E+00
  0.00000000E+00  0.00000000E+00  0.00000000E+00
  0.00000000E+00  0.00000000E+00  0.00000000E+00
  0.00000000E+00  0.00000000E+00  0.00000000E+00
  0.00000000E+00  0.00000000E+00  0.00000000E+00
  0.00000000E+00  0.00000000E+00  0.00000000E+00
  0.00000000E+00  0.00000000E+00  0.00000000E+00
  0.00000000E+00  0.00000000E+00  0.00000000E+00
  0.00000000E+00  0.00000000E+00  0.00000000E+00
  0.00000000E+00  0.00000000E+00  0.00000000E+00
  0.00000000E+00  0.00000000E+00  0.00000000E+00
  0.00000000E+00  0.00000000E+00  0.00000000E+00
  0.00000000E+00  0.00000000E+00  0.00000000E+00
  0.00000000E+00  0.00000000E+00  0.00000000E+00
  0.00000000E+00  0.00000000E+00  0.00000000E+00
  0.00000000E+00  0.00000000E+00  0.00000000E+00
