Ru   N    O                             
   1.00000000000000     
     8.1600000000000001    0.0000000000000000    0.0000000000000000
     4.0800000000000001    7.0667672948810196    0.0000000000000000
     0.0000000000000000    0.0000000000000000   23.5951999999999984
   Ru   N    O 
    36     1     3
Selective dynamics
Direct
  0.8888888888888851  0.2222222222222214  0.0000000000000000   F   F   F
  0.2222222222222214  0.2222222222222214  0.0000000000000000   F   F   F
  0.5555555555555571  0.2222222222222214  0.0000000000000000   F   F   F
  0.8888888888888835  0.5555555555555572  0.0000000000000000   F   F   F
  0.2222222222222213  0.5555555555555572  0.0000000000000000   F   F   F
  0.5555555555555562  0.5555555555555572  0.0000000000000000   F   F   F
  0.8888888888888856  0.8888888888888857  0.0000000000000000   F   F   F
  0.2222222222222207  0.8888888888888857  0.0000000000000000   F   F   F
  0.5555555555555570  0.8888888888888857  0.0000000000000000   F   F   F
  0.0000000000000000  0.0000000000000000  0.0910693700413674   F   F   F
  0.3333333333333342  0.0000000000000000  0.0910693700413674   F   F   F
  0.6666666666666629  0.0000000000000000  0.0910693700413674   F   F   F
  0.9999999999996533  0.3333333333333357  0.0910693700413674   F   F   F
  0.3333333333333356  0.3333333333333357  0.0910693700413674   F   F   F
  0.6666666666664276  0.3333333333333357  0.0910693700413674   F   F   F
  0.9999999999996391  0.6666666666666646  0.0910693700413674   F   F   F
  0.3333333333331090  0.6666666666666646  0.0910693700413674   F   F   F
  0.6666666666666550  0.6666666666666646  0.0910693700413674   F   F   F
  0.8880711853973332  0.2228005634981222  0.1825445304060805   T   T   T
  0.2227391158756445  0.2234843780614116  0.1838246476894720   T   T   T
  0.5539340063024802  0.2229718212322023  0.1833962446908290   T   T   T
  0.8890598055199943  0.5569072412672749  0.1830978292640953   T   T   T
  0.2222079125963730  0.5555425999545688  0.1806523791457220   T   T   T
  0.5541424011871159  0.5563187582167700  0.1833978853550738   T   T   T
  0.8890370361334903  0.8878125825461016  0.1832425054843573   T   T   T
  0.2228017746291457  0.8877414665680571  0.1836538775591752   T   T   T
  0.5554510088397852  0.8891594222005911  0.1828356900082251   T   T   T
  0.9998144002680606  0.0043494609391542  0.2703654266395638   T   T   T
  0.3337555571462524  0.0000531139206606  0.2706983121474500   T   T   T
  0.6657891389425958  0.9984417612033187  0.2707495858436151   T   T   T
  0.0002762677090299  0.3294419591178331  0.2703341974398711   T   T   T
  0.3378466128275910  0.3241454752931647  0.2737829669772396   T   T   T
  0.6727580123793615  0.3310716172783899  0.2723574528156549   T   T   T
  0.9890529367956096  0.6725228530457220  0.2736375494923886   T   T   T
  0.3370404736884173  0.6732757455859846  0.2735016975132373   T   T   T
  0.6652834284354150  0.6709768301579249  0.2706048575752666   T   T   T
  0.6334974612791610  0.2726980715988438  0.3974589950675235   T   T   T
  0.6603301329152400  0.3024014346004787  0.4461179179945427   T   T   T
  0.7084056244054633  0.3450271713675741  0.3584628777366635   T   T   T
  0.2202556180080168  0.5576458277350756  0.3229656179512595   T   T   T
 
             NaN             NaN             NaN
             NaN             NaN             NaN
             NaN             NaN             NaN
             NaN             NaN             NaN
             NaN             NaN             NaN
             NaN             NaN             NaN
             NaN             NaN             NaN
             NaN             NaN             NaN
             NaN             NaN             NaN
             NaN             NaN             NaN
             NaN             NaN             NaN
             NaN             NaN             NaN
             NaN             NaN             NaN
             NaN             NaN             NaN
             NaN             NaN             NaN
             NaN             NaN             NaN
             NaN             NaN             NaN
             NaN             NaN             NaN
             NaN             NaN             NaN
             NaN             NaN             NaN
             NaN             NaN             NaN
             NaN             NaN             NaN
             NaN             NaN             NaN
             NaN             NaN             NaN
             NaN             NaN             NaN
             NaN             NaN             NaN
             NaN             NaN             NaN
             NaN             NaN             NaN
             NaN             NaN             NaN
             NaN             NaN             NaN
             NaN             NaN             NaN
             NaN             NaN             NaN
             NaN             NaN             NaN
             NaN             NaN             NaN
             NaN             NaN             NaN
             NaN             NaN             NaN
             NaN             NaN             NaN
             NaN             NaN             NaN
             NaN             NaN             NaN
             NaN             NaN             NaN
