Cu  N  O 
 1.0000000000000000
     7.8488619999999996    0.0000000000000000    0.0000000000000000
     3.9244420000000000    6.7973340000000002    0.0000000000000000
     0.0000000000000000    0.0000000000000000   23.5447869999999995
 Cu  N   O  
  36   1   3
Cartesian
  0.0000000000000000  0.0000000000000000  0.0000000000000000
  2.6162950000000000  0.0000000000000000  0.0000000000000000
  5.2325900000000001  0.0000000000000000  0.0000000000000000
  1.3081480000000001  2.2657780000000001  0.0000000000000000
  3.9244430000000001  2.2657780000000001  0.0000000000000000
  6.5407380000000002  2.2657780000000001  0.0000000000000000
 10.4651800000000001  4.5315560000000001  0.0000000000000000
  5.2325900000000001  4.5315560000000001  0.0000000000000000
  7.8488850000000001  4.5315560000000001  0.0000000000000000
  1.3081480000000001  0.7552590000000000  2.1361960000000000
  3.9244430000000001  0.7552590000000000  2.1361960000000000
  6.5407380000000002  0.7552590000000000  2.1361960000000000
  2.6162950000000000  3.0210370000000002  2.1361960000000000
  5.2325900000000001  3.0210370000000002  2.1361960000000000
  7.8488850000000001  3.0210370000000002  2.1361960000000000
  3.9244430000000001  5.2868149999999998  2.1361960000000000
  6.5407380000000002  5.2868149999999998  2.1361960000000000
  9.1570330000000002  5.2868149999999998  2.1361960000000000
  7.8430190000000000  1.5067100000000000  4.2100720000000003
  2.6255400000000000  1.5166400000000000  4.2495909999999997
  5.2103149999999996  1.5165480000000000  4.2465120000000001
  9.1643519999999992  3.7822320000000000  4.2494880000000004
  3.9158629999999999  3.7747009999999999  4.2619660000000001
  6.5187559999999998  3.7817959999999999  4.2473609999999997
 10.4568379999999994  6.0204250000000004  4.2492380000000001
  5.2266550000000001  6.0196040000000002  4.2501410000000002
  7.8422179999999999  6.0381890000000000  4.2195099999999996
 -0.0094580000000000  0.0262010000000000  6.3008210000000000
  6.5362159999999996  6.7893739999999996  6.3159869999999998
  9.1383360000000007  6.7908359999999997  6.3128989999999998
  1.2699800000000001  2.2436210000000001  6.3018010000000002
  3.9187140000000000  2.2094550000000002  6.4171310000000004
  6.5605659999999997  2.2433920000000001  6.2985590000000000
 10.4001669999999997  4.5578110000000001  6.4248300000000000
  5.2692420000000002  4.5488970000000002  6.4224439999999996
  7.8357999999999999  4.5355100000000004  6.3151270000000004
  3.9005329999999998  3.7552180000000002  9.5386699999999998
  2.9281389999999998  4.2707689999999996 10.0017110000000002
  4.8724449999999999  3.2273299999999998  9.9898579999999999
  3.8977580000000001  3.7782140000000002  7.6911829999999997
