Ni  N  O                                
   1.00000000000000     
     7.5306872196367305    0.0000000000000000    0.0000000000000000
     3.7653436098183652    6.5217664401602118    0.0000000000000000
     0.0000000000000000    0.0000000000000000   23.1983738224926874
   Ni   N    O 
    36     1     3
Selective dynamics
Direct
  0.0000000000000000  0.0000000000000000  0.0000000000000000   F   F   F
  0.3333333333333357  0.0000000000000000  0.0000000000000000   F   F   F
  0.6666666666666643  0.0000000000000000  0.0000000000000000   F   F   F
  0.0000000000000000  0.3333333333333357  0.0000000000000000   F   F   F
  0.3333333333333357  0.3333333333333357  0.0000000000000000   F   F   F
  0.6666666666666643  0.3333333333333357  0.0000000000000000   F   F   F
  0.0000000000000000  0.6666666666666643  0.0000000000000000   F   F   F
  0.3333333333333357  0.6666666666666643  0.0000000000000000   F   F   F
  0.6666666666666643  0.6666666666666643  0.0000000000000000   F   F   F
  0.1111111111111143  0.1111111111111143  0.0883507383451132   F   F   F
  0.4444444444444429  0.1111111111111143  0.0883507383451132   F   F   F
  0.7777777777777786  0.1111111111111143  0.0883507383451132   F   F   F
  0.1111111111111143  0.4444444444444429  0.0883507383451132   F   F   F
  0.4444444444444429  0.4444444444444429  0.0883507383451132   F   F   F
  0.7777777777777786  0.4444444444444429  0.0883507383451132   F   F   F
  0.1111111111111143  0.7777777777777786  0.0883507383451132   F   F   F
  0.4444444444444429  0.7777777777777786  0.0883507383451132   F   F   F
  0.7777777777777786  0.7777777777777786  0.0883507383451132   F   F   F
  0.8856236785687974  0.2246607267663503  0.1769562025845382   T   T   T
  0.2243358765088126  0.2245044204870655  0.1768859039105586   T   T   T
  0.5548869391508345  0.2246926647668737  0.1773552379415960   T   T   T
  0.8892051968789055  0.5562414800520681  0.1752770160253288   T   T   T
  0.2239157087447574  0.5534839551637701  0.1766064365222167   T   T   T
  0.5573367532335406  0.5534969830729977  0.1766028614700263   T   T   T
  0.8897846294822666  0.8891442037727841  0.1750862218573720   T   T   T
  0.2220515975113384  0.8904212581681923  0.1749713949402983   T   T   T
  0.5556862148997066  0.8891107008265512  0.1750932654513793   T   T   T
  0.0023605602830538  0.9998655485211365  0.2623420120509339   T   T   T
  0.3341106776933162  0.9997029071294629  0.2623058425273344   T   T   T
  0.6697386934629755  0.9961761571670674  0.2612852043631303   T   T   T
  0.0007326842546421  0.3349760881215272  0.2619636713601193   T   T   T
  0.3344207769165840  0.3353120588257935  0.2694649530022532   T   T   T
  0.6666493336429703  0.3353648205566889  0.2695022962812717   T   T   T
  0.9987389398455560  0.6695289066129421  0.2622772601187956   T   T   T
  0.3307721401061434  0.6741862393549636  0.2613595534791666   T   T   T
  0.6677689668440405  0.6691463195331857  0.2622644097694614   T   T   T
  0.4986366018461831  0.3385491161752035  0.3817447375171088   T   T   T
  0.4974735070685787  0.3405531740032324  0.4345151454692719   T   T   T
  0.6502008156083686  0.3374460825854845  0.3534259745535778   T   T   T
  0.3482611885099612  0.3375147661291019  0.3533471577794112   T   T   T
 
  0.00000000E+00  0.00000000E+00  0.00000000E+00
  0.00000000E+00  0.00000000E+00  0.00000000E+00
  0.00000000E+00  0.00000000E+00  0.00000000E+00
  0.00000000E+00  0.00000000E+00  0.00000000E+00
  0.00000000E+00  0.00000000E+00  0.00000000E+00
  0.00000000E+00  0.00000000E+00  0.00000000E+00
  0.00000000E+00  0.00000000E+00  0.00000000E+00
  0.00000000E+00  0.00000000E+00  0.00000000E+00
  0.00000000E+00  0.00000000E+00  0.00000000E+00
  0.00000000E+00  0.00000000E+00  0.00000000E+00
  0.00000000E+00  0.00000000E+00  0.00000000E+00
  0.00000000E+00  0.00000000E+00  0.00000000E+00
  0.00000000E+00  0.00000000E+00  0.00000000E+00
  0.00000000E+00  0.00000000E+00  0.00000000E+00
  0.00000000E+00  0.00000000E+00  0.00000000E+00
  0.00000000E+00  0.00000000E+00  0.00000000E+00
  0.00000000E+00  0.00000000E+00  0.00000000E+00
  0.00000000E+00  0.00000000E+00  0.00000000E+00
  0.00000000E+00  0.00000000E+00  0.00000000E+00
  0.00000000E+00  0.00000000E+00  0.00000000E+00
  0.00000000E+00  0.00000000E+00  0.00000000E+00
  0.00000000E+00  0.00000000E+00  0.00000000E+00
  0.00000000E+00  0.00000000E+00  0.00000000E+00
  0.00000000E+00  0.00000000E+00  0.00000000E+00
  0.00000000E+00  0.00000000E+00  0.00000000E+00
  0.00000000E+00  0.00000000E+00  0.00000000E+00
  0.00000000E+00  0.00000000E+00  0.00000000E+00
  0.00000000E+00  0.00000000E+00  0.00000000E+00
  0.00000000E+00  0.00000000E+00  0.00000000E+00
  0.00000000E+00  0.00000000E+00  0.00000000E+00
  0.00000000E+00  0.00000000E+00  0.00000000E+00
  0.00000000E+00  0.00000000E+00  0.00000000E+00
  0.00000000E+00  0.00000000E+00  0.00000000E+00
  0.00000000E+00  0.00000000E+00  0.00000000E+00
  0.00000000E+00  0.00000000E+00  0.00000000E+00
  0.00000000E+00  0.00000000E+00  0.00000000E+00
  0.00000000E+00  0.00000000E+00  0.00000000E+00
  0.00000000E+00  0.00000000E+00  0.00000000E+00
  0.00000000E+00  0.00000000E+00  0.00000000E+00
  0.00000000E+00  0.00000000E+00  0.00000000E+00
