Ni   N    O 
   1.00000000000000     
   7.5306872196367305   0.0000000000000000   0.0000000000000000
   3.7653436098183701   6.5217664401602100   0.0000000000000000
   0.0000000000000000   0.0000000000000000  23.1983738224927016
Ni   N    O 
36  1  3  
Selective dynamics
Direct
  0.0000000000000000  0.0000000000000000  0.0000000000000000 F F F
  0.3333333333333357  0.0000000000000000  0.0000000000000000 F F F
  0.6666666666666643  0.0000000000000000  0.0000000000000000 F F F
  0.0000000000000000  0.3333333333333357  0.0000000000000000 F F F
  0.3333333333333357  0.3333333333333357  0.0000000000000000 F F F
  0.6666666666666643  0.3333333333333357  0.0000000000000000 F F F
  0.0000000000000000  0.6666666666666643  0.0000000000000000 F F F
  0.3333333333333357  0.6666666666666643  0.0000000000000000 F F F
  0.6666666666666643  0.6666666666666643  0.0000000000000000 F F F
  0.1111111111111143  0.1111111111111143  0.0883507383451132 F F F
  0.4444444444444429  0.1111111111111143  0.0883507383451132 F F F
  0.7777777777777786  0.1111111111111143  0.0883507383451132 F F F
  0.1111111111111143  0.4444444444444429  0.0883507383451132 F F F
  0.4444444444444429  0.4444444444444429  0.0883507383451132 F F F
  0.7777777777777786  0.4444444444444429  0.0883507383451132 F F F
  0.1111111111111143  0.7777777777777786  0.0883507383451132 F F F
  0.4444444444444429  0.7777777777777786  0.0883507383451132 F F F
  0.7777777777777786  0.7777777777777786  0.0883507383451132 F F F
  0.8867267995527786  0.2237768965577475  0.1760848602687644 T T T
  0.2239668894411962  0.2246935766710605  0.1774846523449507 T T T
  0.5530382990520970  0.2246570528200037  0.1776598852814275 T T T
  0.8885359544544583  0.5565666639487098  0.1758662787088730 T T T
  0.2230771034396305  0.5535803568214636  0.1765818013477460 T T T
  0.5549498938996273  0.5537688909364711  0.1773203457316425 T T T
  0.8874859140456878  0.8889652176452484  0.1760071828489901 T T T
  0.2224714744008181  0.8885640023909245  0.1757167552697423 T T T
  0.5551359014931839  0.8888377982789072  0.1752092278595587 T T T
  0.9994647779193550  0.0041982485046282  0.2613122760292148 T T T
  0.3329043150859920  0.9992030315614114  0.2621689837609468 T T T
  0.6639740365110911  0.9956729334159896  0.2622953383761443 T T T
  0.9995252086579590  0.3318079796408981  0.2619601631634764 T T T
  0.3369033070169569  0.3249442089718519  0.2807041912133118 T T T
  0.6752489483485696  0.3315490866243292  0.2677678551160398 T T T
  0.9919852055738032  0.6679703938286783  0.2655046573618595 T T T
  0.3329405639915302  0.6727706882864545  0.2659692240851929 T T T
  0.6650359359869615  0.6678214313086093  0.2622262007565286 T T T
  0.5071731883382664  0.2185258365568502  0.3507745546889690 T T T
  0.4682843035758456  0.1627491266890896  0.3960109888508708 T T T
  0.6529915765561035  0.2690669662180154  0.3499695237094956 T T T
  0.1990484436576372  0.5932996593234044  0.3168190147823237 T T T
