Rh  N  O                                
   1.00000000000000     
     8.2095097295758208    0.0000000000000000    0.0000000000000000
     0.0000000000000000    8.2095097295758208    0.0000000000000000
     0.0000000000000000    0.0000000000000000   22.7399999999999984
   Rh   N    O 
    36     1     3
Selective dynamics
Direct
  0.1666666666666643  0.1666666666666643  0.0000000000000000   F   F   F
  0.5000000000000000  0.1666666666666643  0.0000000000000000   F   F   F
  0.8333333333333357  0.1666666666666643  0.0000000000000000   F   F   F
  0.1666666666666643  0.5000000000000000  0.0000000000000000   F   F   F
  0.5000000000000000  0.5000000000000000  0.0000000000000000   F   F   F
  0.8333333333333357  0.5000000000000000  0.0000000000000000   F   F   F
  0.1666666666666643  0.8333333333333357  0.0000000000000000   F   F   F
  0.5000000000000000  0.8333333333333357  0.0000000000000000   F   F   F
  0.8333333333333357  0.8333333333333357  0.0000000000000000   F   F   F
  0.0000000000000000  0.0000000000000000  0.0850923482849595   F   F   F
  0.3333333333333357  0.0000000000000000  0.0850923482849595   F   F   F
  0.6666666666666643  0.0000000000000000  0.0850923482849595   F   F   F
  0.0000000000000000  0.3333333333333357  0.0850923482849595   F   F   F
  0.3333333333333357  0.3333333333333357  0.0850923482849595   F   F   F
  0.6666666666666643  0.3333333333333357  0.0850923482849595   F   F   F
  0.0000000000000000  0.6666666666666643  0.0850923482849595   F   F   F
  0.3333333333333357  0.6666666666666643  0.0850923482849595   F   F   F
  0.6666666666666643  0.6666666666666643  0.0850923482849595   F   F   F
  0.1679398645914461  0.1692873006267277  0.1702769667940132   F   F   F
  0.4996006445638557  0.1686262536814169  0.1703132824802722   F   F   F
  0.8310931453894597  0.1673607080711648  0.1695870501017254   F   F   F
  0.1678808477780649  0.4974066500470329  0.1702614442150789   F   F   F
  0.4995642915957319  0.4979607032738613  0.1703300850790583   F   F   F
  0.8310688787622098  0.4992905794396592  0.1695930092643891   F   F   F
  0.1663056262817051  0.8333362281959538  0.1687151138546028   F   F   F
  0.4999032153511678  0.8333284131068410  0.1685617616048063   F   F   F
  0.8328648554660418  0.8333265639306831  0.1684236398897738   F   F   F
  0.9984765879502717  0.9975980364949848  0.2502154721789651   F   F   F
  0.3319812386537251  0.9949985498068941  0.2504006589511292   F   F   F
  0.6672408978544055  0.9965830858515332  0.2501839563385957   F   F   F
  0.9950312840125193  0.3333322319730243  0.2503018100038474   F   F   F
  0.3261781940400397  0.3333600335856417  0.2566728607579165   F   F   F
  0.6710405026705359  0.3333098580834815  0.2551539418968005   F   F   F
  0.9984690983187789  0.6690742035689610  0.2502141557440041   F   F   F
  0.3319737251247830  0.6716853029206078  0.2503989957560293   F   F   F
  0.6672337290788235  0.6700699166133646  0.2501830353769563   F   F   F
  0.5286259288526836  0.3330827768540701  0.3799937614872846   T   T   T
  0.5171676513604808  0.3336932434226654  0.4331710240872724   T   T   T
  0.6608390278241743  0.3333404504158537  0.3516182267723238   T   T   T
  0.3311414377427297  0.3336309531949410  0.3358806698661866   T   T   T
 
  0.00000000E+00  0.00000000E+00  0.00000000E+00
  0.00000000E+00  0.00000000E+00  0.00000000E+00
  0.00000000E+00  0.00000000E+00  0.00000000E+00
  0.00000000E+00  0.00000000E+00  0.00000000E+00
  0.00000000E+00  0.00000000E+00  0.00000000E+00
  0.00000000E+00  0.00000000E+00  0.00000000E+00
  0.00000000E+00  0.00000000E+00  0.00000000E+00
  0.00000000E+00  0.00000000E+00  0.00000000E+00
  0.00000000E+00  0.00000000E+00  0.00000000E+00
  0.00000000E+00  0.00000000E+00  0.00000000E+00
  0.00000000E+00  0.00000000E+00  0.00000000E+00
  0.00000000E+00  0.00000000E+00  0.00000000E+00
  0.00000000E+00  0.00000000E+00  0.00000000E+00
  0.00000000E+00  0.00000000E+00  0.00000000E+00
  0.00000000E+00  0.00000000E+00  0.00000000E+00
  0.00000000E+00  0.00000000E+00  0.00000000E+00
  0.00000000E+00  0.00000000E+00  0.00000000E+00
  0.00000000E+00  0.00000000E+00  0.00000000E+00
  0.00000000E+00  0.00000000E+00  0.00000000E+00
  0.00000000E+00  0.00000000E+00  0.00000000E+00
  0.00000000E+00  0.00000000E+00  0.00000000E+00
  0.00000000E+00  0.00000000E+00  0.00000000E+00
  0.00000000E+00  0.00000000E+00  0.00000000E+00
  0.00000000E+00  0.00000000E+00  0.00000000E+00
  0.00000000E+00  0.00000000E+00  0.00000000E+00
  0.00000000E+00  0.00000000E+00  0.00000000E+00
  0.00000000E+00  0.00000000E+00  0.00000000E+00
  0.00000000E+00  0.00000000E+00  0.00000000E+00
  0.00000000E+00  0.00000000E+00  0.00000000E+00
  0.00000000E+00  0.00000000E+00  0.00000000E+00
  0.00000000E+00  0.00000000E+00  0.00000000E+00
  0.00000000E+00  0.00000000E+00  0.00000000E+00
  0.00000000E+00  0.00000000E+00  0.00000000E+00
  0.00000000E+00  0.00000000E+00  0.00000000E+00
  0.00000000E+00  0.00000000E+00  0.00000000E+00
  0.00000000E+00  0.00000000E+00  0.00000000E+00
  0.00000000E+00  0.00000000E+00  0.00000000E+00
  0.00000000E+00  0.00000000E+00  0.00000000E+00
  0.00000000E+00  0.00000000E+00  0.00000000E+00
  0.00000000E+00  0.00000000E+00  0.00000000E+00
