Rh  N  O 
 1.0000000000000000
     8.2095097295758208    0.0000000000000000    0.0000000000000000
     0.0000000000000000    8.2095097295758208    0.0000000000000000
     0.0000000000000000    0.0000000000000000   22.7399999999999984
 Rh  N   O  
  36   1   3
Selective dynamics
Cartesian
  1.3682516215959475  1.3682516215959475  0.0000000000000000   F   F   F
  4.1047548647879086  1.3682516215959475  0.0000000000000000   F   F   F
  6.8412581079798702  1.3682516215959475  0.0000000000000000   F   F   F
  1.3682516215959475  4.1047548647879086  0.0000000000000000   F   F   F
  4.1047548647879086  4.1047548647879086  0.0000000000000000   F   F   F
  6.8412581079798702  4.1047548647879086  0.0000000000000000   F   F   F
  1.3682516215959475  6.8412581079798702  0.0000000000000000   F   F   F
  4.1047548647879086  6.8412581079798702  0.0000000000000000   F   F   F
  6.8412581079798702  6.8412581079798702  0.0000000000000000   F   F   F
  0.0000000000000000  0.0000000000000000  1.9349999999999790   F   F   F
  2.7365032431919598  0.0000000000000000  1.9349999999999790   F   F   F
  5.4730064863838601  0.0000000000000000  1.9349999999999790   F   F   F
  0.0000000000000000  2.7365032431919598  1.9349999999999790   F   F   F
  2.7365032431919598  2.7365032431919598  1.9349999999999790   F   F   F
  5.4730064863838601  2.7365032431919598  1.9349999999999790   F   F   F
  0.0000000000000000  5.4730064863838601  1.9349999999999790   F   F   F
  2.7365032431919598  5.4730064863838601  1.9349999999999790   F   F   F
  5.4730064863838601  5.4730064863838601  1.9349999999999790   F   F   F
  1.3787039523471234  1.3897657415887326  3.8720982248959372   F   F   F
  4.1014763524492999  1.3843388702595316  3.8729240436013939   F   F   F
  6.8228672632585372  1.3739493612589351  3.8564095193132335   F   F   F
  1.3782194532434651  4.0834647331168563  3.8717452414508373   F   F   F
  4.1011779124038164  4.0880132384732049  3.8733061346977515   F   F   F
  6.8226680461460116  4.0989308697954332  3.8565450306722484   F   F   F
  1.3652876570428412  6.8412818733826741  3.8365816890535922   F   F   F
  4.1039603102716713  6.8412177153325917  3.8330944588933700   F   F   F
  6.8374121343702354  6.8412025345029299  3.8299535710934651   F   F   F
  8.1970032635314460  8.1897907868113311  5.6898998373496097   F   F   F
  2.7254032087643791  8.1684502755535000  5.6941109845486206   F   F   F
  5.4777206429066441  8.1814585396288848  5.6891831671396229   F   F   F
  8.1687190073331255  2.7364942015637768  5.6918631594875366   F   F   F
  2.6777630575471507  2.7367224391730267  5.8367408536350984   F   F   F
  5.5089135356132211  2.7363105228998745  5.8022006387332405   F   F   F
  8.1969417773288225  5.4927711840075606  5.6898699016186480   F   F   F
  2.7253415263754057  5.5142070295397909  5.6940731634921793   F   F   F
  5.4776617907737437  5.5009454999334473  5.6891622244719748   F   F   F
  4.3397597062221411  2.7344462973376067  8.6410581362208791   T   T   T
  4.2456928656657684  2.7394579285720999  9.8503090877446002   T   T   T
  5.4251644286060099  2.7365616709501168  7.9957984768027162   T   T   T
  2.7185088550146457  2.7389465563415154  7.6529264327571456   T   T   T
