Cu  N  O 
 1.0000000000000000
     7.8488852711706798    0.0000000000000000    0.0000000000000000
     3.9244426355853399    6.7973340362233197    0.0000000000000000
     0.0000000000000000    0.0000000000000000   23.5447839840065001
 Cu  N   O  
  36   1   3
Selective dynamics
Cartesian
  0.0000000000000000  0.0000000000000000  0.0000000000000000   F   F   F
  2.6162950903902451  0.0000000000000000  0.0000000000000000   F   F   F
  5.2325901807804298  0.0000000000000000  0.0000000000000000   F   F   F
  1.3081475451951230  2.2657780120744566  0.0000000000000000   F   F   F
  3.9244426355853612  2.2657780120744566  0.0000000000000000   F   F   F
  6.5407377259755526  2.2657780120744566  0.0000000000000000   F   F   F
 10.4651803615607832  4.5315560241488635  0.0000000000000000   F   F   F
  5.2325901807804627  4.5315560241488635  0.0000000000000000   F   F   F
  7.8488852711706469  4.5315560241488635  0.0000000000000000   F   F   F
  1.3081475451951508  0.7552593373581683  2.1361959960016681   F   F   F
  3.9244426355853403  0.7552593373581683  2.1361959960016681   F   F   F
  6.5407377259755854  0.7552593373581683  2.1361959960016681   F   F   F
  2.6162950903902447  3.0210373494325760  2.1361959960016681   F   F   F
  5.2325901807804343  3.0210373494325760  2.1361959960016681   F   F   F
  7.8488852711706665  3.0210373494325760  2.1361959960016681   F   F   F
  3.9244426355853643  5.2868153615070321  2.1361959960016681   F   F   F
  6.5407377259755570  5.2868153615070321  2.1361959960016681   F   F   F
  9.1570328163658026  5.2868153615070321  2.1361959960016681   F   F   F
  7.8572503784848928  1.5054752035263690  4.1955827293962047   F   F   F
  2.6412657414952170  1.5174416773448740  4.2322863280826359   F   F   F
  5.2280934179678145  1.5158755250200209  4.2299295205416048   F   F   F
  9.1813828086977303  3.7790953797509856  4.2330152896215756   F   F   F
  3.9284972380499088  3.7749455220701353  4.2537679911385986   F   F   F
  6.5332439527678421  3.7778880790050917  4.2313897068605790   F   F   F
 10.4750357927580673  6.0196121812298697  4.2333184309874978   F   F   F
  5.2394251372886353  6.0159538383130347  4.2340686195706771   F   F   F
  7.8559121498250146  6.0381631856011566  4.1988447244359488   F   F   F
  0.0078962271666809  0.0131972452993068  6.2643200879279970   F   F   F
  6.5538512047754107  6.7903159578744585  6.2686356606898714   F   F   F
  9.1605429183152136  6.7890841883250959  6.2692987373478948   F   F   F
  1.2993081113332536  2.2529428905407358  6.2636200369527479   F   F   F
  3.9314046243438248  2.2151768719535143  6.3670880219786889   F   F   F
  6.5844898182590450  2.2408220432360650  6.2652135154884911   F   F   F
 10.4248749214583754  4.5546516119571585  6.3775611633017117   F   F   F
  5.2808481806128915  4.5507034414029173  6.3763288498719977   F   F   F
  7.8583233628316407  4.5339043468193090  6.2695164774815861   F   F   F
  4.5471630798915115  3.3968769077132261  9.3540787411576503   T   T   T
  3.7940222957151981  3.7920164963233045 10.2338801369707628   T   T   T
  5.6158858930750810  2.8091542325387446  9.4820761114048100   T   T   T
  4.0886973659927612  3.6762424159243392  7.9005788851789749   T   T   T
