Pd  N  O 
 1.0000000000000000
     8.4216417639317793    0.0000000000000000    0.0000000000000000
     4.2108208819658897    7.2933557091369101    0.0000000000000000
     0.0000000000000000    0.0000000000000000   24.1683222747312989
 Pd  N   O  
  36   1   3
Selective dynamics
Cartesian
  0.0000000000000000  0.0000000000000000  0.0000000000000000   F   F   F
  2.8072139213106131  0.0000000000000000  0.0000000000000000   F   F   F
  5.6144278426211667  0.0000000000000000  0.0000000000000000   F   F   F
  1.4036069606553065  2.4311185697123205  0.0000000000000000   F   F   F
  4.2108208819659199  2.4311185697123205  0.0000000000000000   F   F   F
  7.0180348032764730  2.4311185697123205  0.0000000000000000   F   F   F
  2.8072139213105829  4.8622371394245931  0.0000000000000000   F   F   F
  5.6144278426211969  4.8622371394245931  0.0000000000000000   F   F   F
  8.4216417639317491  4.8622371394245931  0.0000000000000000   F   F   F
  1.4036069606553361  0.8103728565707911  2.2920805686828589   F   F   F
  4.2108208819658897  0.8103728565707911  2.2920805686828589   F   F   F
  7.0180348032764961  0.8103728565707911  2.2920805686828589   F   F   F
  2.8072139213106126  3.2414914262830599  2.2920805686828589   F   F   F
  5.6144278426211667  3.2414914262830599  2.2920805686828589   F   F   F
  8.4216417639317793  3.2414914262830599  2.2920805686828589   F   F   F
  4.2108208819659199  5.6726099959953800  2.2920805686828589   F   F   F
  7.0180348032764730  5.6726099959953800  2.2920805686828589   F   F   F
  9.8252487245870856  5.6726099959953800  2.2920805686828589   F   F   F
  8.4478081010996284  1.6403678455246582  4.5632508698425589   F   F   F
  2.8275282572044391  1.6398951455025839  4.5697468148048896   F   F   F
  5.6378113396627176  1.6456737940164816  4.5653305690689319   F   F   F
  9.8504531191434008  4.0803995707673293  4.5693248945731604   F   F   F
  4.2268705695177804  4.0608486395341190  4.6280399727877590   F   F   F
  7.0399834292884762  4.0826271637570013  4.5644688658026098   F   F   F
 11.2305280555197342  6.5166498630302963  4.6356667747733189   F   F   F
  5.6385718233470667  6.5093166365462700  4.5875543778858390   F   F   F
  8.4412504729636293  6.5121233456650165  4.5759540292312968   F   F   F
  0.0793816452702610  0.0607322001383744  6.9006004122444775   F   F   F
  2.8355230435582612  0.0468424812125932  6.9149457542459407   F   F   F
  5.7286408766796182  0.0489630737199631  6.9323851970232671   F   F   F
  1.4500633466536590  2.5017973581867521  6.8616067321514791   F   F   F
  4.2697972372450339  2.5525530860969932  6.8967630212891038   F   F   F
  7.1039360928620674  2.5094675245527283  6.8456360973625463   F   F   F
  2.8681361281967730  4.9274039919976511  6.9098739595195733   F   F   F
  5.6831799832656653  4.9391542607860810  6.8983568757014613   F   F   F
  8.4842130251596810  4.9158410180785870  6.8655028629980190   F   F   F
  5.1255751132109042  1.5984244924169859  9.8582137901352187   T   T   T
  4.2483915677530319  1.8498999274130539 10.6494512333531723   T   T   T
  6.3348061572015357  1.6484531821728816  9.9088104977476377   T   T   T
  4.4784853705879195  1.0006959760634959  8.3080189795372377   T   T   T
