Pd  N  O                                
   1.00000000000000     
     8.4216417639317811    0.0000000000000000    0.0000000000000000
     0.0000000000000000    8.4216417639317811    0.0000000000000000
     0.0000000000000000    0.0000000000000000   22.9400000000000013
   Pd   N    O 
    36     1     3
Selective dynamics
Direct
  0.1666666666666643  0.1666666666666643  0.0000000000000000   F   F   F
  0.5000000000000000  0.1666666666666643  0.0000000000000000   F   F   F
  0.8333333333333357  0.1666666666666643  0.0000000000000000   F   F   F
  0.1666666666666643  0.5000000000000000  0.0000000000000000   F   F   F
  0.5000000000000000  0.5000000000000000  0.0000000000000000   F   F   F
  0.8333333333333357  0.5000000000000000  0.0000000000000000   F   F   F
  0.1666666666666643  0.8333333333333357  0.0000000000000000   F   F   F
  0.5000000000000000  0.8333333333333357  0.0000000000000000   F   F   F
  0.8333333333333357  0.8333333333333357  0.0000000000000000   F   F   F
  0.0000000000000000  0.0000000000000000  0.0865300784655645   F   F   F
  0.3333333333333357  0.0000000000000000  0.0865300784655645   F   F   F
  0.6666666666666643  0.0000000000000000  0.0865300784655645   F   F   F
  0.0000000000000000  0.3333333333333357  0.0865300784655645   F   F   F
  0.3333333333333357  0.3333333333333357  0.0865300784655645   F   F   F
  0.6666666666666643  0.3333333333333357  0.0865300784655645   F   F   F
  0.0000000000000000  0.6666666666666643  0.0865300784655645   F   F   F
  0.3333333333333357  0.6666666666666643  0.0865300784655645   F   F   F
  0.6666666666666643  0.6666666666666643  0.0865300784655645   F   F   F
  0.1708728863461940  0.1689446817380398  0.1742067745594611   T   T   T
  0.4984997636425913  0.1697346761912554  0.1743841172490255   T   T   T
  0.8318775682731134  0.1685243894763588  0.1733081577078403   T   T   T
  0.1708347331685865  0.4977155742337201  0.1742008148396399   T   T   T
  0.4984860031065960  0.4969035536234186  0.1743849708032326   T   T   T
  0.8319204373773246  0.4981732770845420  0.1733092136977446   T   T   T
  0.1675070956835481  0.8333135995424121  0.1717337770427370   T   T   T
  0.5005009079564323  0.8332938157414412  0.1715936513996667   T   T   T
  0.8342895718515838  0.8333555169499551  0.1715244210802152   T   T   T
  0.0001791112433397 -0.0037218135132551  0.2579333035625442   T   T   T
  0.3349981676757495 -0.0046069033951332  0.2581966709832135   T   T   T
  0.6666605773277143 -0.0034069604587608  0.2577242400935513   T   T   T
 -0.0087788228582880  0.3334040447718242  0.2572029924214236   T   T   T
  0.3414473212673889  0.3330895678590413  0.2793189501878678   T   T   T
  0.6679805386659785  0.3334547177835023  0.2628968795355215   T   T   T
  0.0001981253068690  0.6704155574977212  0.2579290156075308   T   T   T
  0.3350142405754580  0.6710977174320206  0.2582051205145198   T   T   T
  0.6666751423375931  0.6701119682126158  0.2577386251901214   T   T   T
  0.4595293864396239  0.3328636914537600  0.3596166853575902   T   T   T
  0.3968875155190398  0.3324186621635048  0.4074309749470535   T   T   T
  0.6125718768096146  0.3332505386931584  0.3544122757270234   T   T   T
  0.1365205147155379  0.3325912157881629  0.3197606926634732   T   T   T
 
  0.00000000E+00  0.00000000E+00  0.00000000E+00
  0.00000000E+00  0.00000000E+00  0.00000000E+00
  0.00000000E+00  0.00000000E+00  0.00000000E+00
  0.00000000E+00  0.00000000E+00  0.00000000E+00
  0.00000000E+00  0.00000000E+00  0.00000000E+00
  0.00000000E+00  0.00000000E+00  0.00000000E+00
  0.00000000E+00  0.00000000E+00  0.00000000E+00
  0.00000000E+00  0.00000000E+00  0.00000000E+00
  0.00000000E+00  0.00000000E+00  0.00000000E+00
  0.00000000E+00  0.00000000E+00  0.00000000E+00
  0.00000000E+00  0.00000000E+00  0.00000000E+00
  0.00000000E+00  0.00000000E+00  0.00000000E+00
  0.00000000E+00  0.00000000E+00  0.00000000E+00
  0.00000000E+00  0.00000000E+00  0.00000000E+00
  0.00000000E+00  0.00000000E+00  0.00000000E+00
  0.00000000E+00  0.00000000E+00  0.00000000E+00
  0.00000000E+00  0.00000000E+00  0.00000000E+00
  0.00000000E+00  0.00000000E+00  0.00000000E+00
  0.00000000E+00  0.00000000E+00  0.00000000E+00
  0.00000000E+00  0.00000000E+00  0.00000000E+00
  0.00000000E+00  0.00000000E+00  0.00000000E+00
  0.00000000E+00  0.00000000E+00  0.00000000E+00
  0.00000000E+00  0.00000000E+00  0.00000000E+00
  0.00000000E+00  0.00000000E+00  0.00000000E+00
  0.00000000E+00  0.00000000E+00  0.00000000E+00
  0.00000000E+00  0.00000000E+00  0.00000000E+00
  0.00000000E+00  0.00000000E+00  0.00000000E+00
  0.00000000E+00  0.00000000E+00  0.00000000E+00
  0.00000000E+00  0.00000000E+00  0.00000000E+00
  0.00000000E+00  0.00000000E+00  0.00000000E+00
  0.00000000E+00  0.00000000E+00  0.00000000E+00
  0.00000000E+00  0.00000000E+00  0.00000000E+00
  0.00000000E+00  0.00000000E+00  0.00000000E+00
  0.00000000E+00  0.00000000E+00  0.00000000E+00
  0.00000000E+00  0.00000000E+00  0.00000000E+00
  0.00000000E+00  0.00000000E+00  0.00000000E+00
  0.00000000E+00  0.00000000E+00  0.00000000E+00
  0.00000000E+00  0.00000000E+00  0.00000000E+00
  0.00000000E+00  0.00000000E+00  0.00000000E+00
  0.00000000E+00  0.00000000E+00  0.00000000E+00
