Pd   N    O 
   1.00000000000000     
   8.4216417639317793   0.0000000000000000   0.0000000000000000
   4.2108208819658897   7.2933557091369101   0.0000000000000000
   0.0000000000000000   0.0000000000000000  24.1683222747312989
Pd   N    O 
36  1  3  
Selective dynamics
Direct
  0.0000000000000000  0.0000000000000000  0.0000000000000000 F F F
  0.3333333333333357  0.0000000000000000  0.0000000000000000 F F F
  0.6666666666666643  0.0000000000000000  0.0000000000000000 F F F
  0.0000000000000000  0.3333333333333357  0.0000000000000000 F F F
  0.3333333333333357  0.3333333333333357  0.0000000000000000 F F F
  0.6666666666666643  0.3333333333333357  0.0000000000000000 F F F
 -0.0000000000000000  0.6666666666666644  0.0000000000000000 F F F
  0.3333333333333356  0.6666666666666644  0.0000000000000000 F F F
  0.6666666666666642  0.6666666666666644  0.0000000000000000 F F F
  0.1111111111111143  0.1111111111111143  0.0948382160179690 F F F
  0.4444444444444429  0.1111111111111143  0.0948382160179690 F F F
  0.7777777777777785  0.1111111111111143  0.0948382160179690 F F F
  0.1111111111111142  0.4444444444444429  0.0948382160179690 F F F
  0.4444444444444429  0.4444444444444429  0.0948382160179690 F F F
  0.7777777777777786  0.4444444444444429  0.0948382160179690 F F F
  0.1111111111111143  0.7777777777777786  0.0948382160179690 F F F
  0.4444444444444429  0.7777777777777786  0.0948382160179690 F F F
  0.7777777777777786  0.7777777777777786  0.0948382160179690 F F F
  0.8896064670603003  0.2205371052326469  0.1886613487540615 T T T
  0.2253795931772360  0.2195810495186985  0.1909238115340495 T T T
  0.5566235664075674  0.2202989745817211  0.1896539365142093 T T T
  0.8902172834793662  0.5541466429708527  0.1896599594367251 T T T
  0.2230734235049985  0.5541527403314972  0.1888355255748442 T T T
  0.5566251782450434  0.5539989272311536  0.1898162541347362 T T T
  0.8901836523533498  0.8865587586969663  0.1896067916957238 T T T
  0.2253113596710959  0.8853614987472580  0.1911144914344467 T T T
  0.5567383049576919  0.8869040653410704  0.1892028514860699 T T T
  0.9983694142112902  0.0006877231104052  0.2849044894573512 T T T
  0.3344425186032722  0.9967787637131560  0.2857924547860054 T T T
  0.6680786361346536  0.9951739807010130  0.2845125931985419 T T T
  0.9979351660002872  0.3296689028320102  0.2847069797413446 T T T
  0.3298100424077925  0.3271173338022194  0.2857022770595107 T T T
  0.6718790454266801  0.3283407123895087  0.2845992995234988 T T T
  0.9989868324787872  0.6653112592591925  0.2863172731649906 T T T
  0.3313379410291711  0.6703080035925758  0.2868131113269611 T T T
  0.6681890515661713  0.6652890973718851  0.2848514927936652 T T T
  0.4504591322061517  0.4212656867012052  0.4102988401983098 T T T
  0.3656075722010745  0.4455741780075088  0.4528147802458629 T T T
  0.6144372745570748  0.3486304706654215  0.4007670023871387 T T T
  0.2880980554894738  0.5182072333105620  0.3433999358753013 T T T
