Ni   N    O 
   1.00000000000000     
   7.5306872196367305   0.0000000000000000   0.0000000000000000
   0.0000000000000000   7.5306872196367305   0.0000000000000000
   0.0000000000000000   0.0000000000000000  22.1000000000000014
Ni   N    O 
36  1  3  
Selective dynamics
Direct
  0.1666666666666640  0.1666666666666640  0.0000000000000000 F F F
  0.5000000000000000  0.1666666666666640  0.0000000000000000 F F F
  0.8333333333333360  0.1666666666666640  0.0000000000000000 F F F
  0.1666666666666640  0.5000000000000000  0.0000000000000000 F F F
  0.5000000000000000  0.5000000000000000  0.0000000000000000 F F F
  0.8333333333333360  0.5000000000000000  0.0000000000000000 F F F
  0.1666666666666640  0.8333333333333360  0.0000000000000000 F F F
  0.5000000000000000  0.8333333333333360  0.0000000000000000 F F F
  0.8333333333333360  0.8333333333333360  0.0000000000000000 F F F
  0.0000000000000000  0.0000000000000000  0.0803167420814503 F F F
  0.3333333333333360  0.0000000000000000  0.0803167420814503 F F F
  0.6666666666666640  0.0000000000000000  0.0803167420814503 F F F
  0.0000000000000000  0.3333333333333360  0.0803167420814503 F F F
  0.3333333333333360  0.3333333333333360  0.0803167420814503 F F F
  0.6666666666666640  0.3333333333333360  0.0803167420814503 F F F
  0.0000000000000000  0.6666666666666640  0.0803167420814503 F F F
  0.3333333333333360  0.6666666666666640  0.0803167420814503 F F F
  0.6666666666666640  0.6666666666666640  0.0803167420814503 F F F
  0.1697824439084740  0.1685705551604640  0.1614818103992660 T T T
  0.5006869033911410  0.1696931354503090  0.1623653417703750 T T T
  0.8334083171329419  0.1697636922565520  0.1618416858083550 T T T
  0.1692191330410750  0.4979967904520490  0.1600009804791260 T T T
  0.4999767421004010  0.4966858533830990  0.1620335961120320 T T T
  0.8304980175876010  0.4983615408989830  0.1615325074127580 T T T
  0.1658231125251180  0.8338735320890290  0.1601877481633740 T T T
  0.4985160152545660  0.8318442662491490  0.1607098775609050 T T T
  0.8337344939721020  0.8330913491028580  0.1605040897588950 T T T
  0.0003800458644889  0.0012968991380191  0.2380139695545220 T T T
  0.3334247558063770  0.9962386149800150  0.2377084624228370 T T T
  0.6681220733631790  0.9964837996125619  0.2375263056195610 T T T
  0.0038419686123490  0.3365090753572280  0.2391912911818320 T T T
  0.3342068497278350  0.3296235634634710  0.2481287558402630 T T T
  0.6746407536141350  0.3337370085868590  0.2453623960860300 T T T
  0.9969317505985340  0.6702964841688370  0.2394973059044430 T T T
  0.3293852467513570  0.6665678270944040  0.2391836080961410 T T T
  0.6648004687624510  0.6694562816691910  0.2378277903503590 T T T
  0.4680605883992540  0.3106072759635410  0.3465320553391820 T T T
  0.4301099243833160  0.3006655408551280  0.3984580964975920 T T T
  0.6313943654826700  0.3163290455835220  0.3313111476873370 T T T
  0.2509123604537750  0.4246054683181270  0.3070387032731220 T T T
