Pd   N    O 
   1.00000000000000     
   8.4216417639317793   0.0000000000000000   0.0000000000000000
   4.2108208819658897   7.2933557091369101   0.0000000000000000
   0.0000000000000000   0.0000000000000000  24.1683222747312989
Pd   N    O 
36  1  3  
Selective dynamics
Direct
  0.0000000000000000  0.0000000000000000  0.0000000000000000 F F F
  0.3333333333333360  0.0000000000000000  0.0000000000000000 F F F
  0.6666666666666640  0.0000000000000000  0.0000000000000000 F F F
  0.0000000000000000  0.3333333333333360  0.0000000000000000 F F F
  0.3333333333333360  0.3333333333333360  0.0000000000000000 F F F
  0.6666666666666640  0.3333333333333360  0.0000000000000000 F F F
  0.0000000000000000  0.6666666666666640  0.0000000000000000 F F F
  0.3333333333333360  0.6666666666666640  0.0000000000000000 F F F
  0.6666666666666640  0.6666666666666640  0.0000000000000000 F F F
  0.1111111111111140  0.1111111111111140  0.0948382160179690 F F F
  0.4444444444444430  0.1111111111111140  0.0948382160179690 F F F
  0.7777777777777790  0.1111111111111140  0.0948382160179690 F F F
  0.1111111111111140  0.4444444444444430  0.0948382160179690 F F F
  0.4444444444444430  0.4444444444444430  0.0948382160179690 F F F
  0.7777777777777790  0.4444444444444430  0.0948382160179690 F F F
  0.1111111111111140  0.7777777777777790  0.0948382160179690 F F F
  0.4444444444444430  0.7777777777777790  0.0948382160179690 F F F
  0.7777777777777790  0.7777777777777790  0.0948382160179690 F F F
  0.8869409588165380  0.2222776022739690  0.1900042492291190 T T T
  0.2237062266753680  0.2215085366224590  0.1907245689722710 T T T
  0.5555951905812290  0.2218797627975490  0.1899249004594950 T T T
  0.8885282625912940  0.5545058396822210  0.1891853355066080 T T T
  0.2216041969787810  0.5551617398768510  0.1888565448182360 T T T
  0.5555774553701550  0.5537271917174990  0.1900979197615480 T T T
  0.8884393971669911  0.8883541255564040  0.1890661767445750 T T T
  0.2231647440556230  0.8868951663434860  0.1902615952459430 T T T
  0.5553608097163620  0.8876986092263270  0.1890801435135860 T T T
  0.9970281221608350  0.0001984017768848  0.2849223080210810 T T T
  0.3313169823507850  0.9984629923056050  0.2853819730963210 T T T
  0.6647064314755440  0.9973740967438400  0.2842036814213810 T T T
  0.9964100365461380  0.3319182273576330  0.2849678739088550 T T T
  0.3268944687920480  0.3307595449806940  0.2854870007427340 T T T
  0.6671684661796040  0.3309054880638270  0.2877524375035780 T T T
  0.9938366127155051  0.6680694992189370  0.2842843021012480 T T T
  0.3276331273497920  0.6716048946544010  0.2856017691949550 T T T
  0.6645639420752329  0.6668596142162569  0.2845234728157640 T T T
  0.4511897929822770  0.4185316016436860  0.4038183031077550 T T T
  0.3976697481110490  0.4337335462113290  0.4509376082617460 T T T
  0.6168069576636840  0.3447491485389800  0.3888803550629590 T T T
  0.3058019622287060  0.4973635513570260  0.3570466551771500 T T T
