Rh  N  O                                
   1.00000000000000     
     8.2095097295758173    0.0000000000000000    0.0000000000000000
     4.1047548647879086    7.1096439784281742    0.0000000000000000
     0.0000000000000000    0.0000000000000000   23.9373821670554108
   Rh   N    O 
    36     1     3
Selective dynamics
Direct
  0.0000000000000000  0.0000000000000000  0.0000000000000000   F   F   F
  0.3333333333333357  0.0000000000000000  0.0000000000000000   F   F   F
  0.6666666666666643  0.0000000000000000  0.0000000000000000   F   F   F
  0.0000000000000000  0.3333333333333357  0.0000000000000000   F   F   F
  0.3333333333333357  0.3333333333333357  0.0000000000000000   F   F   F
  0.6666666666666643  0.3333333333333357  0.0000000000000000   F   F   F
  0.0000000000000000  0.6666666666666643  0.0000000000000000   F   F   F
  0.3333333333333357  0.6666666666666643  0.0000000000000000   F   F   F
  0.6666666666666643  0.6666666666666643  0.0000000000000000   F   F   F
  0.1111111111111143  0.1111111111111143  0.0933412653969725   F   F   F
  0.4444444444444429  0.1111111111111143  0.0933412653969725   F   F   F
  0.7777777777777786  0.1111111111111143  0.0933412653969725   F   F   F
  0.1111111111111143  0.4444444444444429  0.0933412653969725   F   F   F
  0.4444444444444429  0.4444444444444429  0.0933412653969725   F   F   F
  0.7777777777777786  0.4444444444444429  0.0933412653969725   F   F   F
  0.1111111111111143  0.7777777777777786  0.0933412653969725   F   F   F
  0.4444444444444429  0.7777777777777786  0.0933412653969725   F   F   F
  0.7777777777777786  0.7777777777777786  0.0933412653969725   F   F   F
  0.8863205542338355  0.2241015285697720  0.1851206604729239   T   T   T
  0.2231951532679619  0.2240619519207315  0.1850831133054867   T   T   T
  0.5555375648674101  0.2224475778466042  0.1843814322678185   T   T   T
  0.8890882903342119  0.5554440005344475  0.1836126670779375   T   T   T
  0.2231213944247342  0.5538224250552976  0.1845293545030519   T   T   T
  0.5565080148120265  0.5538301341230025  0.1845129392818129   T   T   T
  0.8892165188944349  0.8889740972702515  0.1833935887608702   T   T   T
  0.2221209220145105  0.8893865518751400  0.1832492220231045   T   T   T
  0.5554976489852138  0.8887778425627136  0.1832912282571015   T   T   T
  0.0020618200589903  0.9986995194021681  0.2747475294059072   T   T   T
  0.3334088518119466  0.9985000079786106  0.2747084337746201   T   T   T
  0.6697462566817624  0.9942013421087863  0.2742458638472848   T   T   T
  0.9996787046667288  0.3347582071033328  0.2749487378391457   T   T   T
  0.3353731855691223  0.3334129541898939  0.2787548582359742   T   T   T
  0.6652690833258367  0.3333698916493263  0.2787494951466351   T   T   T
  0.9982480965265540  0.6687141077371794  0.2749917845445415   T   T   T
  0.3302539012290315  0.6732534231522571  0.2744709139721762   T   T   T
  0.6668926615446847  0.6685939577864064  0.2749679584637967   T   T   T
  0.5023739101434443  0.3289479192534099  0.3942843309279153   T   T   T
  0.5049294987469761  0.3236633217651861  0.4454829134048677   T   T   T
  0.6395324544401054  0.3323814741123346  0.3672377515800977   T   T   T
  0.3621693978124770  0.3315212635980808  0.3672067775778154   T   T   T
 
  0.00000000E+00  0.00000000E+00  0.00000000E+00
  0.00000000E+00  0.00000000E+00  0.00000000E+00
  0.00000000E+00  0.00000000E+00  0.00000000E+00
  0.00000000E+00  0.00000000E+00  0.00000000E+00
  0.00000000E+00  0.00000000E+00  0.00000000E+00
  0.00000000E+00  0.00000000E+00  0.00000000E+00
  0.00000000E+00  0.00000000E+00  0.00000000E+00
  0.00000000E+00  0.00000000E+00  0.00000000E+00
  0.00000000E+00  0.00000000E+00  0.00000000E+00
  0.00000000E+00  0.00000000E+00  0.00000000E+00
  0.00000000E+00  0.00000000E+00  0.00000000E+00
  0.00000000E+00  0.00000000E+00  0.00000000E+00
  0.00000000E+00  0.00000000E+00  0.00000000E+00
  0.00000000E+00  0.00000000E+00  0.00000000E+00
  0.00000000E+00  0.00000000E+00  0.00000000E+00
  0.00000000E+00  0.00000000E+00  0.00000000E+00
  0.00000000E+00  0.00000000E+00  0.00000000E+00
  0.00000000E+00  0.00000000E+00  0.00000000E+00
  0.00000000E+00  0.00000000E+00  0.00000000E+00
  0.00000000E+00  0.00000000E+00  0.00000000E+00
  0.00000000E+00  0.00000000E+00  0.00000000E+00
  0.00000000E+00  0.00000000E+00  0.00000000E+00
  0.00000000E+00  0.00000000E+00  0.00000000E+00
  0.00000000E+00  0.00000000E+00  0.00000000E+00
  0.00000000E+00  0.00000000E+00  0.00000000E+00
  0.00000000E+00  0.00000000E+00  0.00000000E+00
  0.00000000E+00  0.00000000E+00  0.00000000E+00
  0.00000000E+00  0.00000000E+00  0.00000000E+00
  0.00000000E+00  0.00000000E+00  0.00000000E+00
  0.00000000E+00  0.00000000E+00  0.00000000E+00
  0.00000000E+00  0.00000000E+00  0.00000000E+00
  0.00000000E+00  0.00000000E+00  0.00000000E+00
  0.00000000E+00  0.00000000E+00  0.00000000E+00
  0.00000000E+00  0.00000000E+00  0.00000000E+00
  0.00000000E+00  0.00000000E+00  0.00000000E+00
  0.00000000E+00  0.00000000E+00  0.00000000E+00
  0.00000000E+00  0.00000000E+00  0.00000000E+00
  0.00000000E+00  0.00000000E+00  0.00000000E+00
  0.00000000E+00  0.00000000E+00  0.00000000E+00
  0.00000000E+00  0.00000000E+00  0.00000000E+00
