Pd   N    O 
   1.00000000000000     
   8.4216417639317793   0.0000000000000000   0.0000000000000000
   4.2108208819658897   7.2933557091369101   0.0000000000000000
   0.0000000000000000   0.0000000000000000  24.1683222747312989
Pd   N    O 
36  1  3  
Selective dynamics
Direct
  0.0000000000000000  0.0000000000000000  0.0000000000000000 F F F
  0.3333333333333360  0.0000000000000000  0.0000000000000000 F F F
  0.6666666666666640  0.0000000000000000  0.0000000000000000 F F F
  0.0000000000000000  0.3333333333333360  0.0000000000000000 F F F
  0.3333333333333360  0.3333333333333360  0.0000000000000000 F F F
  0.6666666666666640  0.3333333333333360  0.0000000000000000 F F F
  0.0000000000000000  0.6666666666666640  0.0000000000000000 F F F
  0.3333333333333360  0.6666666666666640  0.0000000000000000 F F F
  0.6666666666666640  0.6666666666666640  0.0000000000000000 F F F
  0.1111111111111140  0.1111111111111140  0.0948382160179690 F F F
  0.4444444444444430  0.1111111111111140  0.0948382160179690 F F F
  0.7777777777777790  0.1111111111111140  0.0948382160179690 F F F
  0.1111111111111140  0.4444444444444430  0.0948382160179690 F F F
  0.4444444444444430  0.4444444444444430  0.0948382160179690 F F F
  0.7777777777777790  0.4444444444444430  0.0948382160179690 F F F
  0.1111111111111140  0.7777777777777790  0.0948382160179690 F F F
  0.4444444444444430  0.7777777777777790  0.0948382160179690 F F F
  0.7777777777777790  0.7777777777777790  0.0948382160179690 F F F
  0.8882737129384140  0.2214073537533140  0.1893327989915860 T T T
  0.2245429099263060  0.2205447930705800  0.1908241902531670 T T T
  0.5561093784943980  0.2210893686896400  0.1897894184868460 T T T
  0.8893727730353330  0.5543262413265350  0.1894226474716590 T T T
  0.2223388102418870  0.5546572401041771  0.1888460351965480 T T T
  0.5561013168075990  0.5538630594743240  0.1899570869481480 T T T
  0.8893115247601741  0.8874564421266909  0.1893364842201490 T T T
  0.2242380518633520  0.8861283325453750  0.1906880433402020 T T T
  0.5560495573370330  0.8873013372836950  0.1891414974998260 T T T
  0.9976987681860620  0.0004430624436367  0.2849133987392210 T T T
  0.3328797504770340  0.9976208780093860  0.2855872139411700 T T T
  0.6663925338051020  0.9962740387224190  0.2843581373099580 T T T
  0.9971726012732200  0.3307935650948220  0.2848374268251060 T T T
  0.3283522555999240  0.3289384393914640  0.2855946389011170 T T T
  0.6695237558031411  0.3296231002266620  0.2861758685135310 T T T
  0.9964117225971451  0.6666903792390640  0.2853007876331260 T T T
  0.3294855341894800  0.6709564491234870  0.2862074402609520 T T T
  0.6663764968207030  0.6660743557940730  0.2846874828047130 T T T
  0.4508244625942130  0.4198986441724410  0.4070585716530390 T T T
  0.3816386601560640  0.4396538621094240  0.4518761942538060 T T T
  0.6156221161103730  0.3466898096021960  0.3948236787250540 T T T
  0.2969500088590920  0.5077853923337869  0.3502232955262270 T T T
