Ru  N  O                                
   1.00000000000000     
     8.1600000000000001    0.0000000000000000    0.0000000000000000
     4.0800000000000001    7.0667672948810196    0.0000000000000000
     0.0000000000000000    0.0000000000000000   23.5951999999999984
   Ru   N    O 
    36     1     3
Selective dynamics
Direct
  0.8888888888888857  0.2222222222222214  0.0000000000000000   F   F   F
  0.2222222222222214  0.2222222222222214  0.0000000000000000   F   F   F
  0.5555555555555571  0.2222222222222214  0.0000000000000000   F   F   F
  0.8888888888888857  0.5555555555555571  0.0000000000000000   F   F   F
  0.2222222222222214  0.5555555555555571  0.0000000000000000   F   F   F
  0.5555555555555571  0.5555555555555571  0.0000000000000000   F   F   F
  0.8888888888888857  0.8888888888888857  0.0000000000000000   F   F   F
  0.2222222222222214  0.8888888888888857  0.0000000000000000   F   F   F
  0.5555555555555571  0.8888888888888857  0.0000000000000000   F   F   F
  0.0000000000000000  0.0000000000000000  0.0910693700413674   F   F   F
  0.3333333333333357  0.0000000000000000  0.0910693700413674   F   F   F
  0.6666666666666643  0.0000000000000000  0.0910693700413674   F   F   F
  0.0000000000000000  0.3333333333333357  0.0910693700413674   F   F   F
  0.3333333333333357  0.3333333333333357  0.0910693700413674   F   F   F
  0.6666666666666643  0.3333333333333357  0.0910693700413674   F   F   F
  0.0000000000000000  0.6666666666666643  0.0910693700413674   F   F   F
  0.3333333333333357  0.6666666666666643  0.0910693700413674   F   F   F
  0.6666666666666643  0.6666666666666643  0.0910693700413674   F   F   F
  0.8889675264121248  0.2235865458216295  0.1824491637272976   T   T   T
  0.2215803692728616  0.2251102580070759  0.1831307989951509   T   T   T
  0.5525600205978979  0.2240779130400276  0.1831780869633624   T   T   T
  0.8892189222219145  0.5556274978642995  0.1828037357674935   T   T   T
  0.2216540013838945  0.5552947161985708  0.1810447896266815   T   T   T
  0.5540334538197471  0.5558831893690700  0.1836128968953899   T   T   T
  0.8882935412416639  0.8886289257295555  0.1830503382021688   T   T   T
  0.2226307701631020  0.8880807740493700  0.1835459067365909   T   T   T
  0.5547743125022605  0.8901140361073715  0.1820421881829870   T   T   T
  0.9992286541277500  0.0066776591297856  0.2698690226490277   T   T   T
  0.3321281796617052  0.9984819917128844  0.2703982573518153   T   T   T
  0.6694213585342098  0.9926739468516227  0.2701305764975679   T   T   T
  0.9988384162404661  0.3304237946030359  0.2706239010393460   T   T   T
  0.3402944558697899  0.3258271825150234  0.2793491080183574   T   T   T
  0.6722290900088750  0.3310656576882309  0.2722739807296966   T   T   T
  0.9876681837648937  0.6742811886625418  0.2729829331114899   T   T   T
  0.3358563686741733  0.6769931529097000  0.2732423833338252   T   T   T
  0.6670307740191533  0.6673501307398346  0.2705750462040077   T   T   T
  0.4843488855420036  0.2458667235776600  0.3579236056739362   T   T   T
  0.4373087409239398  0.2043240681341940  0.4026310100553630   T   T   T
  0.6262048188478277  0.2827518409172166  0.3594900576172026   T   T   T
  0.2075010070175459  0.5794249475484570  0.3238821388660802   T   T   T
 
  0.00000000E+00  0.00000000E+00  0.00000000E+00
  0.00000000E+00  0.00000000E+00  0.00000000E+00
  0.00000000E+00  0.00000000E+00  0.00000000E+00
  0.00000000E+00  0.00000000E+00  0.00000000E+00
  0.00000000E+00  0.00000000E+00  0.00000000E+00
  0.00000000E+00  0.00000000E+00  0.00000000E+00
  0.00000000E+00  0.00000000E+00  0.00000000E+00
  0.00000000E+00  0.00000000E+00  0.00000000E+00
  0.00000000E+00  0.00000000E+00  0.00000000E+00
  0.00000000E+00  0.00000000E+00  0.00000000E+00
  0.00000000E+00  0.00000000E+00  0.00000000E+00
  0.00000000E+00  0.00000000E+00  0.00000000E+00
  0.00000000E+00  0.00000000E+00  0.00000000E+00
  0.00000000E+00  0.00000000E+00  0.00000000E+00
  0.00000000E+00  0.00000000E+00  0.00000000E+00
  0.00000000E+00  0.00000000E+00  0.00000000E+00
  0.00000000E+00  0.00000000E+00  0.00000000E+00
  0.00000000E+00  0.00000000E+00  0.00000000E+00
  0.00000000E+00  0.00000000E+00  0.00000000E+00
  0.00000000E+00  0.00000000E+00  0.00000000E+00
  0.00000000E+00  0.00000000E+00  0.00000000E+00
  0.00000000E+00  0.00000000E+00  0.00000000E+00
  0.00000000E+00  0.00000000E+00  0.00000000E+00
  0.00000000E+00  0.00000000E+00  0.00000000E+00
  0.00000000E+00  0.00000000E+00  0.00000000E+00
  0.00000000E+00  0.00000000E+00  0.00000000E+00
  0.00000000E+00  0.00000000E+00  0.00000000E+00
  0.00000000E+00  0.00000000E+00  0.00000000E+00
  0.00000000E+00  0.00000000E+00  0.00000000E+00
  0.00000000E+00  0.00000000E+00  0.00000000E+00
  0.00000000E+00  0.00000000E+00  0.00000000E+00
  0.00000000E+00  0.00000000E+00  0.00000000E+00
  0.00000000E+00  0.00000000E+00  0.00000000E+00
  0.00000000E+00  0.00000000E+00  0.00000000E+00
  0.00000000E+00  0.00000000E+00  0.00000000E+00
  0.00000000E+00  0.00000000E+00  0.00000000E+00
  0.00000000E+00  0.00000000E+00  0.00000000E+00
  0.00000000E+00  0.00000000E+00  0.00000000E+00
  0.00000000E+00  0.00000000E+00  0.00000000E+00
  0.00000000E+00  0.00000000E+00  0.00000000E+00
