Ru  N  O                                
   1.00000000000000     
     8.1600000000000001    0.0000000000000000    0.0000000000000000
     4.0800000000000001    7.0667672948810196    0.0000000000000000
     0.0000000000000000    0.0000000000000000   23.5951999999999984
   Ru   N    O 
    36     1     3
Selective dynamics
Direct
  0.8888888888888857  0.2222222222222214  0.0000000000000000   F   F   F
  0.2222222222222214  0.2222222222222214  0.0000000000000000   F   F   F
  0.5555555555555571  0.2222222222222214  0.0000000000000000   F   F   F
  0.8888888888888857  0.5555555555555571  0.0000000000000000   F   F   F
  0.2222222222222214  0.5555555555555571  0.0000000000000000   F   F   F
  0.5555555555555571  0.5555555555555571  0.0000000000000000   F   F   F
  0.8888888888888857  0.8888888888888857  0.0000000000000000   F   F   F
  0.2222222222222214  0.8888888888888857  0.0000000000000000   F   F   F
  0.5555555555555571  0.8888888888888857  0.0000000000000000   F   F   F
  0.0000000000000000  0.0000000000000000  0.0910693700413674   F   F   F
  0.3333333333333357  0.0000000000000000  0.0910693700413674   F   F   F
  0.6666666666666643  0.0000000000000000  0.0910693700413674   F   F   F
  0.0000000000000000  0.3333333333333357  0.0910693700413674   F   F   F
  0.3333333333333357  0.3333333333333357  0.0910693700413674   F   F   F
  0.6666666666666643  0.3333333333333357  0.0910693700413674   F   F   F
  0.0000000000000000  0.6666666666666643  0.0910693700413674   F   F   F
  0.3333333333333357  0.6666666666666643  0.0910693700413674   F   F   F
  0.6666666666666643  0.6666666666666643  0.0910693700413674   F   F   F
  0.8889685388717704  0.2236276746812764  0.1824230658540411   T   T   T
  0.2215958190167330  0.2251469957363474  0.1830848962383960   T   T   T
  0.5525027327046947  0.2242011470048336  0.1831859475666395   T   T   T
  0.8891667544304089  0.5557171843599150  0.1827796764717418   T   T   T
  0.2215999631595635  0.5552632014189397  0.1811129173285528   T   T   T
  0.5540775958200558  0.5558190169926918  0.1835683758912867   T   T   T
  0.8882529769627959  0.8886009249220617  0.1830224948702830   T   T   T
  0.2225595757196887  0.8881213037297397  0.1834837199600659   T   T   T
  0.5548336148616579  0.8900787757674384  0.1820718942686828   T   T   T
 -0.0008642277011756  0.0069163697149530  0.2697565832891274   T   T   T
  0.3319617832477107 -0.0014518979216822  0.2704701423328141   T   T   T
  0.6694042378487652 -0.0071409981501309  0.2700948494315912   T   T   T
 -0.0011419703373094  0.3301953789488847  0.2706488289901107   T   T   T
  0.3400736562616555  0.3256658069438801  0.2793378696227778   T   T   T
  0.6723035210405055  0.3308757736068075  0.2725197633271757   T   T   T
 -0.0123758417483427  0.6742894800301791  0.2731526555056194   T   T   T
  0.3358181611099583  0.6771294898462785  0.2733248414819658   T   T   T
  0.6670247018912903  0.6674353171591011  0.2706317802845279   T   T   T
  0.4839505006323538  0.2463836416243655  0.3581659676965666   T   T   T
  0.4373262801593063  0.2041468331523529  0.4024884178509605   T   T   T
  0.6267931630349183  0.2825185661139075  0.3592371477445251   T   T   T
  0.2078955921651384  0.5790340299462798  0.3237031144579934   T   T   T
 
  0.00000000E+00  0.00000000E+00  0.00000000E+00
  0.00000000E+00  0.00000000E+00  0.00000000E+00
  0.00000000E+00  0.00000000E+00  0.00000000E+00
  0.00000000E+00  0.00000000E+00  0.00000000E+00
  0.00000000E+00  0.00000000E+00  0.00000000E+00
  0.00000000E+00  0.00000000E+00  0.00000000E+00
  0.00000000E+00  0.00000000E+00  0.00000000E+00
  0.00000000E+00  0.00000000E+00  0.00000000E+00
  0.00000000E+00  0.00000000E+00  0.00000000E+00
  0.00000000E+00  0.00000000E+00  0.00000000E+00
  0.00000000E+00  0.00000000E+00  0.00000000E+00
  0.00000000E+00  0.00000000E+00  0.00000000E+00
  0.00000000E+00  0.00000000E+00  0.00000000E+00
  0.00000000E+00  0.00000000E+00  0.00000000E+00
  0.00000000E+00  0.00000000E+00  0.00000000E+00
  0.00000000E+00  0.00000000E+00  0.00000000E+00
  0.00000000E+00  0.00000000E+00  0.00000000E+00
  0.00000000E+00  0.00000000E+00  0.00000000E+00
  0.00000000E+00  0.00000000E+00  0.00000000E+00
  0.00000000E+00  0.00000000E+00  0.00000000E+00
  0.00000000E+00  0.00000000E+00  0.00000000E+00
  0.00000000E+00  0.00000000E+00  0.00000000E+00
  0.00000000E+00  0.00000000E+00  0.00000000E+00
  0.00000000E+00  0.00000000E+00  0.00000000E+00
  0.00000000E+00  0.00000000E+00  0.00000000E+00
  0.00000000E+00  0.00000000E+00  0.00000000E+00
  0.00000000E+00  0.00000000E+00  0.00000000E+00
  0.00000000E+00  0.00000000E+00  0.00000000E+00
  0.00000000E+00  0.00000000E+00  0.00000000E+00
  0.00000000E+00  0.00000000E+00  0.00000000E+00
  0.00000000E+00  0.00000000E+00  0.00000000E+00
  0.00000000E+00  0.00000000E+00  0.00000000E+00
  0.00000000E+00  0.00000000E+00  0.00000000E+00
  0.00000000E+00  0.00000000E+00  0.00000000E+00
  0.00000000E+00  0.00000000E+00  0.00000000E+00
  0.00000000E+00  0.00000000E+00  0.00000000E+00
  0.00000000E+00  0.00000000E+00  0.00000000E+00
  0.00000000E+00  0.00000000E+00  0.00000000E+00
  0.00000000E+00  0.00000000E+00  0.00000000E+00
  0.00000000E+00  0.00000000E+00  0.00000000E+00
