Cu   Pd   Cu   N    O 
   1.00000000000000     
   7.8488852711706798   0.0000000000000000   0.0000000000000000
   3.9244426355853399   6.7973340362233197   0.0000000000000000
   0.0000000000000000   0.0000000000000000  23.5447839840065001
Cu   Pd   Cu   N    O 
31  1  4  1  3  
Selective dynamics
Direct
  0.0000000000000000  0.0000000000000000  0.0000000000000000 F F F
  0.3333333333333357  0.0000000000000000  0.0000000000000000 F F F
  0.6666666666666636  0.0000000000000000  0.0000000000000000 F F F
 -0.0000000000000000  0.3333333333333358  0.0000000000000000 F F F
  0.3333333333333348  0.3333333333333358  0.0000000000000000 F F F
  0.6666666666666636  0.3333333333333358  0.0000000000000000 F F F
  0.9999999999999788  0.6666666666666643  0.0000000000000000 F F F
  0.3333333333333357  0.6666666666666643  0.0000000000000000 F F F
  0.6666666666666636  0.6666666666666643  0.0000000000000000 F F F
  0.1111111111111143  0.1111111111111143  0.0907290547856690 F F F
  0.4444444444444429  0.1111111111111143  0.0907290547856690 F F F
  0.7777777777777786  0.1111111111111143  0.0907290547856690 F F F
  0.1111111111111142  0.4444444444444429  0.0907290547856690 F F F
  0.4444444444444428  0.4444444444444429  0.0907290547856690 F F F
  0.7777777777777768  0.4444444444444429  0.0907290547856690 F F F
  0.1111111111111138  0.7777777777777787  0.0907290547856690 F F F
  0.4444444444444428  0.7777777777777787  0.0907290547856690 F F F
  0.7777777777777785  0.7777777777777787  0.0907290547856690 F F F
  0.8870453265399795  0.2236857737652278  0.1801391996749702 T T T
  0.2252196284765018  0.2236042330654385  0.1801283813902778 T T T
  0.5561783890807565  0.2238426419297507  0.1808024641727075 T T T
  0.8910575445020783  0.5545904608670295  0.1796496703913300 T T T
  0.2255221167636463  0.5544606594911993  0.1808911015180547 T T T
  0.5571064706075285  0.5557014822642742  0.1807029774362192 T T T
  0.8901327371756618  0.8885405695183666  0.1793164713514618 T T T
  0.2253029830046717  0.8853493839945378  0.1801753165457195 T T T
  0.5560945943709421  0.8895418207804788  0.1796471933674423 T T T
  0.0020672140603075  0.9993955725610428  0.2677276949290310 T T T
  0.3350431160582135  0.9969772501160826  0.2677968497672822 T T T
  0.6737541352251261  0.9961035156849004  0.2682606508790386 T T T
  0.9997086257464588  0.3327425337222049  0.2677623950356374 T T T
  0.3334116959775674  0.3303388022598516  0.2753193948961073 T T T
  0.6777805416665370  0.3299631288458523  0.2706630743470844 T T T
  0.9988781429270980  0.6709866064129707  0.2683480601139634 T T T
  0.3325102839962479  0.6748076104633811  0.2709929191182019 T T T
  0.6742775933992383  0.6719868107882416  0.2670115256836792 T T T
  0.4680096179473752  0.4509659875927899  0.3877032413929255 T T T
  0.5069444657218235  0.4808267578367428  0.4357110782332574 T T T
  0.5284018285920643  0.5198493947311533  0.3426069691382820 T T T
  0.3759478139264202  0.3606996071113629  0.3761456541053633 T T T
