Cu Rh Cu  N  O 
 1.0000000000000000
     7.8488852711706798    0.0000000000000000    0.0000000000000000
     0.0000000000000000    7.8488852711706798    0.0000000000000000
     0.0000000000000000    0.0000000000000000   22.3999999999999986
 Cu  Rh  Cu  N   O  
  31   1   4   1   3
Selective dynamics
Cartesian
  1.3081475451950948  1.3081475451950948  0.0000000000000000   F   F   F
  3.9244426355853399  1.3081475451950948  0.0000000000000000   F   F   F
  6.5407377259755854  1.3081475451950948  0.0000000000000000   F   F   F
  1.3081475451950948  3.9244426355853399  0.0000000000000000   F   F   F
  3.9244426355853399  3.9244426355853399  0.0000000000000000   F   F   F
  6.5407377259755854  3.9244426355853399  0.0000000000000000   F   F   F
  1.3081475451950948  6.5407377259755854  0.0000000000000000   F   F   F
  3.9244426355853399  6.5407377259755854  0.0000000000000000   F   F   F
  6.5407377259755854  6.5407377259755854  0.0000000000000000   F   F   F
  0.0000000000000000  0.0000000000000000  1.8499999999999772   F   F   F
  2.6162950903902451  0.0000000000000000  1.8499999999999772   F   F   F
  5.2325901807804298  0.0000000000000000  1.8499999999999772   F   F   F
  0.0000000000000000  2.6162950903902451  1.8499999999999772   F   F   F
  2.6162950903902451  2.6162950903902451  1.8499999999999772   F   F   F
  5.2325901807804298  2.6162950903902451  1.8499999999999772   F   F   F
  0.0000000000000000  5.2325901807804298  1.8499999999999772   F   F   F
  2.6162950903902451  5.2325901807804298  1.8499999999999772   F   F   F
  5.2325901807804298  5.2325901807804298  1.8499999999999772   F   F   F
  1.3224707132370710  1.2991944652891301  3.6705413507942075   F   F   F
  3.9230464460254382  1.3157516106548506  3.6781073860727478   F   F   F
  6.5257947440061086  1.3162688702821197  3.6756408623066874   F   F   F
  1.3300159640025557  3.9314231533613313  3.6712277915608218   F   F   F
  3.9278617929850044  3.9198173849136086  3.6911287476689383   F   F   F
  6.5349258239884547  3.9137196698878145  3.6785587554597186   F   F   F
  1.3441623192844838  6.5273290959562047  3.6963084351593607   F   F   F
  3.9015070525858020  6.5361397711224409  3.6913962991481339   F   F   F
  6.5542487988379889  6.5543854936905737  3.6555851585111081   F   F   F
  7.8480472694004630  7.8461208941829668  5.3968034459872776   F   F   F
  2.6150035738124444  0.0218403703262815  5.4842305070099027   F   F   F
  5.2273381567469563  7.8460783346421881  5.3978544674458560   F   F   F
  7.8403418801892979  2.6122239545986345  5.3898050105691429   F   F   F
  2.6141894891242212  2.6308383780109628  5.5435058230240548   F   F   F
  5.2799692910876166  2.6068902357631343  5.5147390633487801   F   F   F
  7.8487053306833499  5.2403922741493298  5.3896264843290016   F   F   F
  2.6486096875679093  5.3122090789823826  5.5838560036467237   F   F   F
  5.2907673738774417  5.2853912144234840  5.3846465643868262   F   F   F
  4.1320965853139127  3.7641979748756307  8.2070248496122424   T   T   T
  3.9784909962974719  4.3393254802554946  9.2666289189364939   T   T   T
  5.0907511403638495  3.0717926762246353  7.8419883744628125   T   T   T
  2.6990127601076517  3.8805638168566774  7.0174893638142022   T   T   T
