Cu  Rh  Cu  N  O                        
   1.00000000000000     
     7.8488852711706780    0.0000000000000000    0.0000000000000000
     0.0000000000000000    7.8488852711706780    0.0000000000000000
     0.0000000000000000    0.0000000000000000   22.3999999999999986
   Cu   Rh   Cu   N    O 
    31     1     4     1     3
Selective dynamics
Direct
  0.1666666666666643  0.1666666666666643  0.0000000000000000   F   F   F
  0.5000000000000000  0.1666666666666643  0.0000000000000000   F   F   F
  0.8333333333333357  0.1666666666666643  0.0000000000000000   F   F   F
  0.1666666666666643  0.5000000000000000  0.0000000000000000   F   F   F
  0.5000000000000000  0.5000000000000000  0.0000000000000000   F   F   F
  0.8333333333333357  0.5000000000000000  0.0000000000000000   F   F   F
  0.1666666666666643  0.8333333333333357  0.0000000000000000   F   F   F
  0.5000000000000000  0.8333333333333357  0.0000000000000000   F   F   F
  0.8333333333333357  0.8333333333333357  0.0000000000000000   F   F   F
  0.0000000000000000  0.0000000000000000  0.0825892857142847   F   F   F
  0.3333333333333357  0.0000000000000000  0.0825892857142847   F   F   F
  0.6666666666666643  0.0000000000000000  0.0825892857142847   F   F   F
  0.0000000000000000  0.3333333333333357  0.0825892857142847   F   F   F
  0.3333333333333357  0.3333333333333357  0.0825892857142847   F   F   F
  0.6666666666666643  0.3333333333333357  0.0825892857142847   F   F   F
  0.0000000000000000  0.6666666666666643  0.0825892857142847   F   F   F
  0.3333333333333357  0.6666666666666643  0.0825892857142847   F   F   F
  0.6666666666666643  0.6666666666666643  0.0825892857142847   F   F   F
  0.1674641550390957  0.1676776511534598  0.1638344914492426   T   T   T
  0.5006856821654773  0.1692683589466303  0.1648565871637303   T   T   T
  0.8309088111064341  0.1692761791014934  0.1653587679115889   T   T   T
  0.1674735015516076  0.4989705666765674  0.1638408513858915   T   T   T
  0.5007099385529489  0.4973212560325880  0.1648775466255628   T   T   T
  0.8308856459056153  0.4973607905149234  0.1653690155519404   T   T   T
  0.1659932853944794  0.8332694200899992  0.1639666688948825   T   T   T
  0.4992305203523329  0.8332979632981995  0.1638201429693102   T   T   T
  0.8343144255803034  0.8333589001518367  0.1636164467165211   T   T   T
 -0.0004075406539669 -0.0003180894991075  0.2426760085999046   T   T   T
  0.3333095938165970 -0.0034088822874448  0.2426561643305019   T   T   T
  0.6672045210843393 -0.0038564630175765  0.2422442397810357   T   T   T
  0.0007978801003626  0.3333873621742897  0.2433293642253521   T   T   T
  0.3310480086208197  0.3332378035785106  0.2484039747497588   T   T   T
  0.6711844154005102  0.3335058883655754  0.2494281174238982   T   T   T
 -0.0004543422635121  0.6670561332589219  0.2427038653125106   T   T   T
  0.3333526368954695  0.6698942241318572  0.2427006311629433   T   T   T
  0.6672508536402993  0.6704597582902787  0.2422517242891963   T   T   T
  0.5020233174918892  0.3307232252199981  0.3706054407257198   T   T   T
  0.4994096246368344  0.3297134600963313  0.4254529308731581   T   T   T
  0.6444406135280583  0.3291898984660501  0.3412903022601643   T   T   T
  0.3553482633112564  0.3333774159813384  0.3415392557959456   T   T   T
 
  0.00000000E+00  0.00000000E+00  0.00000000E+00
  0.00000000E+00  0.00000000E+00  0.00000000E+00
  0.00000000E+00  0.00000000E+00  0.00000000E+00
  0.00000000E+00  0.00000000E+00  0.00000000E+00
  0.00000000E+00  0.00000000E+00  0.00000000E+00
  0.00000000E+00  0.00000000E+00  0.00000000E+00
  0.00000000E+00  0.00000000E+00  0.00000000E+00
  0.00000000E+00  0.00000000E+00  0.00000000E+00
  0.00000000E+00  0.00000000E+00  0.00000000E+00
  0.00000000E+00  0.00000000E+00  0.00000000E+00
  0.00000000E+00  0.00000000E+00  0.00000000E+00
  0.00000000E+00  0.00000000E+00  0.00000000E+00
  0.00000000E+00  0.00000000E+00  0.00000000E+00
  0.00000000E+00  0.00000000E+00  0.00000000E+00
  0.00000000E+00  0.00000000E+00  0.00000000E+00
  0.00000000E+00  0.00000000E+00  0.00000000E+00
  0.00000000E+00  0.00000000E+00  0.00000000E+00
  0.00000000E+00  0.00000000E+00  0.00000000E+00
  0.00000000E+00  0.00000000E+00  0.00000000E+00
  0.00000000E+00  0.00000000E+00  0.00000000E+00
  0.00000000E+00  0.00000000E+00  0.00000000E+00
  0.00000000E+00  0.00000000E+00  0.00000000E+00
  0.00000000E+00  0.00000000E+00  0.00000000E+00
  0.00000000E+00  0.00000000E+00  0.00000000E+00
  0.00000000E+00  0.00000000E+00  0.00000000E+00
  0.00000000E+00  0.00000000E+00  0.00000000E+00
  0.00000000E+00  0.00000000E+00  0.00000000E+00
  0.00000000E+00  0.00000000E+00  0.00000000E+00
  0.00000000E+00  0.00000000E+00  0.00000000E+00
  0.00000000E+00  0.00000000E+00  0.00000000E+00
  0.00000000E+00  0.00000000E+00  0.00000000E+00
  0.00000000E+00  0.00000000E+00  0.00000000E+00
  0.00000000E+00  0.00000000E+00  0.00000000E+00
  0.00000000E+00  0.00000000E+00  0.00000000E+00
  0.00000000E+00  0.00000000E+00  0.00000000E+00
  0.00000000E+00  0.00000000E+00  0.00000000E+00
  0.00000000E+00  0.00000000E+00  0.00000000E+00
  0.00000000E+00  0.00000000E+00  0.00000000E+00
  0.00000000E+00  0.00000000E+00  0.00000000E+00
  0.00000000E+00  0.00000000E+00  0.00000000E+00
