Cu   Ru   Cu   N    O 
   1.00000000000000     
   7.8488852711706798   0.0000000000000000   0.0000000000000000
   3.9244426355853399   6.7973340362233197   0.0000000000000000
   0.0000000000000000   0.0000000000000000  23.5447839840065001
Cu   Ru   Cu   N    O 
31  1  4  1  3  
Selective dynamics
Direct
  0.0000000000000000  0.0000000000000000  0.0000000000000000 F F F
  0.3333333333333357  0.0000000000000000  0.0000000000000000 F F F
  0.6666666666666643  0.0000000000000000  0.0000000000000000 F F F
  0.0000000000000000  0.3333333333333357  0.0000000000000000 F F F
  0.3333333333333357  0.3333333333333357  0.0000000000000000 F F F
  0.6666666666666643  0.3333333333333357  0.0000000000000000 F F F
  0.0000000000000000  0.6666666666666643  0.0000000000000000 F F F
  0.3333333333333357  0.6666666666666643  0.0000000000000000 F F F
  0.6666666666666643  0.6666666666666643  0.0000000000000000 F F F
  0.1111111111111143  0.1111111111111143  0.0907290547856689 F F F
  0.4444444444444429  0.1111111111111143  0.0907290547856689 F F F
  0.7777777777777786  0.1111111111111143  0.0907290547856689 F F F
  0.1111111111111143  0.4444444444444429  0.0907290547856689 F F F
  0.4444444444444429  0.4444444444444429  0.0907290547856689 F F F
  0.7777777777777786  0.4444444444444429  0.0907290547856689 F F F
  0.1111111111111143  0.7777777777777786  0.0907290547856689 F F F
  0.4444444444444429  0.7777777777777786  0.0907290547856689 F F F
  0.7777777777777786  0.7777777777777786  0.0907290547856689 F F F
  0.8878358142353673  0.2218562748153617  0.1804684464703390 T T T
  0.2261969789959418  0.2201644495105497  0.1798554418807539 T T T
  0.5539144106580340  0.2230859423546289  0.1837035101285195 T T T
  0.8917097912138567  0.5543481726785141  0.1790327438543562 T T T
  0.2259257420477319  0.5492102584948795  0.1797918830587424 T T T
  0.5587064639373819  0.5524751814056515  0.1798111721978772 T T T
  0.8887511179572494  0.8866210569117449  0.1800601642636861 T T T
  0.2250094754442269  0.8881631464518078  0.1790097097029444 T T T
  0.5570890118284663  0.8891069318722810  0.1794782359265623 T T T
  0.0053766736937695  0.9927604850007570  0.2665905458374594 T T T
  0.3317329939376093  0.9857519933046880  0.2687307739047173 T T T
  0.6882331985333242  0.9801817721013490  0.2713290824115703 T T T
  0.0060195824708206  0.3310688224123373  0.2668472451381690 T T T
  0.3423051986424983  0.3275665769575835  0.2802058460577248 T T T
  0.6822602458627027  0.3313344229492101  0.2722415767821635 T T T
  0.0092895157629504  0.6580894563342670  0.2686032493803872 T T T
  0.3333939359555062  0.6661642034238459  0.2654593358678844 T T T
  0.6769213863088087  0.6587691385713783  0.2663724772153543 T T T
  0.4009548360630490  0.4207199992095892  0.3543702613722752 T T T
  0.2955831896652104  0.4688097180447276  0.3965666727280115 T T T
  0.5785085926011179  0.3951502428382209  0.3573868371357091 T T T
  0.4599617995021771  0.0747872458985573  0.3205832406555705 T T T
