Pd                                      
   1.00000000000000     
     8.4216417639317811    0.0000000000000000    0.0000000000000000
     0.0000000000000000    8.4216417639317811    0.0000000000000000
     0.0000000000000000    0.0000000000000000   22.9400000000000013
   Pd
    36
Selective dynamics
Direct
  0.1666666666666643  0.1666666666666643  0.0000000000000000   F   F   F
  0.5000000000000000  0.1666666666666643  0.0000000000000000   F   F   F
  0.8333333333333357  0.1666666666666643  0.0000000000000000   F   F   F
  0.1666666666666643  0.5000000000000000  0.0000000000000000   F   F   F
  0.5000000000000000  0.5000000000000000  0.0000000000000000   F   F   F
  0.8333333333333357  0.5000000000000000  0.0000000000000000   F   F   F
  0.1666666666666643  0.8333333333333357  0.0000000000000000   F   F   F
  0.5000000000000000  0.8333333333333357  0.0000000000000000   F   F   F
  0.8333333333333357  0.8333333333333357  0.0000000000000000   F   F   F
  0.0000000000000000  0.0000000000000000  0.0865300784655645   F   F   F
  0.3333333333333357  0.0000000000000000  0.0865300784655645   F   F   F
  0.6666666666666643  0.0000000000000000  0.0865300784655645   F   F   F
  0.0000000000000000  0.3333333333333357  0.0865300784655645   F   F   F
  0.3333333333333357  0.3333333333333357  0.0865300784655645   F   F   F
  0.6666666666666643  0.3333333333333357  0.0865300784655645   F   F   F
  0.0000000000000000  0.6666666666666643  0.0865300784655645   F   F   F
  0.3333333333333357  0.6666666666666643  0.0865300784655645   F   F   F
  0.6666666666666643  0.6666666666666643  0.0865300784655645   F   F   F
  0.1666666934951197  0.1666698796455838  0.1729130319318803   T   T   T
  0.5000010379574723  0.1666698993185685  0.1729130307914628   T   T   T
  0.8333322491484210  0.1666698702862231  0.1729140174891742   T   T   T
  0.1666666794059919  0.4999958103285903  0.1729080351709334   T   T   T
  0.5000011206032472  0.4999958805761869  0.1729080670077604   T   T   T
  0.8333321916588763  0.4999959415132553  0.1729090738974746   T   T   T
  0.1666666336002316  0.8333342978435476  0.1729106619297904   T   T   T
  0.5000011664977981  0.8333342046208412  0.1729106744454532   T   T   T
  0.8333322152908132  0.8333342093032508  0.1729116955002414   T   T   T
  0.0000034167477050 -0.0000118218453002  0.2587668482403683   T   T   T
  0.3333334147168553 -0.0000118329642652  0.2587645464007453   T   T   T
  0.6666631652859523 -0.0000118674894603  0.2587663611490250   T   T   T
  0.0000033913322144  0.3333511221408647  0.2587608688286019   T   T   T
  0.3333334335023007  0.3333511036828409  0.2587585329934106   T   T   T
  0.6666631506818458  0.3333511299627839  0.2587604378011539   T   T   T
  0.0000034065868451  0.6666607466610845  0.2587551625471492   T   T   T
  0.3333334695917400  0.6666607187366320  0.2587527658277868   T   T   T
  0.6666631619674540  0.6666606885362720  0.2587545976933029   T   T   T
 
  0.00000000E+00  0.00000000E+00  0.00000000E+00
  0.00000000E+00  0.00000000E+00  0.00000000E+00
  0.00000000E+00  0.00000000E+00  0.00000000E+00
  0.00000000E+00  0.00000000E+00  0.00000000E+00
  0.00000000E+00  0.00000000E+00  0.00000000E+00
  0.00000000E+00  0.00000000E+00  0.00000000E+00
  0.00000000E+00  0.00000000E+00  0.00000000E+00
  0.00000000E+00  0.00000000E+00  0.00000000E+00
  0.00000000E+00  0.00000000E+00  0.00000000E+00
  0.00000000E+00  0.00000000E+00  0.00000000E+00
  0.00000000E+00  0.00000000E+00  0.00000000E+00
  0.00000000E+00  0.00000000E+00  0.00000000E+00
  0.00000000E+00  0.00000000E+00  0.00000000E+00
  0.00000000E+00  0.00000000E+00  0.00000000E+00
  0.00000000E+00  0.00000000E+00  0.00000000E+00
  0.00000000E+00  0.00000000E+00  0.00000000E+00
  0.00000000E+00  0.00000000E+00  0.00000000E+00
  0.00000000E+00  0.00000000E+00  0.00000000E+00
  0.00000000E+00  0.00000000E+00  0.00000000E+00
  0.00000000E+00  0.00000000E+00  0.00000000E+00
  0.00000000E+00  0.00000000E+00  0.00000000E+00
  0.00000000E+00  0.00000000E+00  0.00000000E+00
  0.00000000E+00  0.00000000E+00  0.00000000E+00
  0.00000000E+00  0.00000000E+00  0.00000000E+00
  0.00000000E+00  0.00000000E+00  0.00000000E+00
  0.00000000E+00  0.00000000E+00  0.00000000E+00
  0.00000000E+00  0.00000000E+00  0.00000000E+00
  0.00000000E+00  0.00000000E+00  0.00000000E+00
  0.00000000E+00  0.00000000E+00  0.00000000E+00
  0.00000000E+00  0.00000000E+00  0.00000000E+00
  0.00000000E+00  0.00000000E+00  0.00000000E+00
  0.00000000E+00  0.00000000E+00  0.00000000E+00
  0.00000000E+00  0.00000000E+00  0.00000000E+00
  0.00000000E+00  0.00000000E+00  0.00000000E+00
  0.00000000E+00  0.00000000E+00  0.00000000E+00
  0.00000000E+00  0.00000000E+00  0.00000000E+00
