 N  O  H                                
   1.00000000000000     
    15.0000000000000000    0.0000000000000000    0.0000000000000000
     0.0000000000000000   15.0000000000000000    0.0000000000000000
     0.0000000000000000    0.0000000000000000   15.0000000000000000
   N    O    H 
     1     3     1
Direct
  0.4659674683970607  0.4657687721578867  0.4634111336588518
  0.4573716318586065  0.4660328793332837  0.5605348509450607
  0.5425872003190904  0.4658222369875205  0.4347293774042740
  0.3948057993496263  0.4655172371596521  0.4249235410647145
  0.5200503517701733  0.4665884004162422  0.5796813156640823
 
  0.00000000E+00  0.00000000E+00  0.00000000E+00
  0.00000000E+00  0.00000000E+00  0.00000000E+00
  0.00000000E+00  0.00000000E+00  0.00000000E+00
  0.00000000E+00  0.00000000E+00  0.00000000E+00
  0.00000000E+00  0.00000000E+00  0.00000000E+00
