Cu   Pd   Cu   N    O                   
   1.00000000000000     
     7.8488852711706798    0.0000000000000000    0.0000000000000000
     0.0000000000000000    7.8488852711706798    0.0000000000000000
     0.0000000000000000    0.0000000000000000   22.3999999999999986
   Cu   Pd   Cu   N    O 
    31     1     4     1     3
Selective dynamics
Direct
  0.1666666666666643  0.1666666666666643  0.0000000000000000   F   F   F
  0.5000000000000000  0.1666666666666643  0.0000000000000000   F   F   F
  0.8333333333333357  0.1666666666666643  0.0000000000000000   F   F   F
  0.1666666666666643  0.5000000000000000  0.0000000000000000   F   F   F
  0.5000000000000000  0.5000000000000000  0.0000000000000000   F   F   F
  0.8333333333333357  0.5000000000000000  0.0000000000000000   F   F   F
  0.1666666666666643  0.8333333333333357  0.0000000000000000   F   F   F
  0.5000000000000000  0.8333333333333357  0.0000000000000000   F   F   F
  0.8333333333333357  0.8333333333333357  0.0000000000000000   F   F   F
  0.0000000000000000  0.0000000000000000  0.0825892857142847   F   F   F
  0.3333333333333357  0.0000000000000000  0.0825892857142847   F   F   F
  0.6666666666666636  0.0000000000000000  0.0825892857142847   F   F   F
  0.0000000000000000  0.3333333333333357  0.0825892857142847   F   F   F
  0.3333333333333357  0.3333333333333357  0.0825892857142847   F   F   F
  0.6666666666666636  0.3333333333333357  0.0825892857142847   F   F   F
  0.0000000000000000  0.6666666666666636  0.0825892857142847   F   F   F
  0.3333333333333357  0.6666666666666636  0.0825892857142847   F   F   F
  0.6666666666666636  0.6666666666666636  0.0825892857142847   F   F   F
  0.1688586380221976  0.1659143633318482  0.1642156292937359   T   T   T
  0.5005056706886915  0.1660196512348592  0.1647756068718146   T   T   T
  0.8323554832991242  0.1656669896155653  0.1634167468089873   T   T   T
  0.1679633593206506  0.4979627987226133  0.1642788608433756   T   T   T
  0.5014843885030529  0.4972851462863582  0.1647676607692853   T   T   T
  0.8332712307164287  0.4996511555791372  0.1633809549527559   T   T   T
  0.1673315291538697  0.8335123573399192  0.1634518150802135   T   T   T
  0.5020254837026076  0.8292395676812104  0.1645764487934327   T   T   T
  0.8338685770092269  0.8299445873445530  0.1643094333384069   T   T   T
 -0.0004764483542814  0.0000290446866279  0.2425050788548954   T   T   T
  0.3329097481667754  0.9905524437937377  0.2439391754015732   T   T   T
  0.6677642106180343  0.9945741348634589  0.2419748085312698   T   T   T
  0.9991584593241546  0.3298939541853032  0.2418658668719479   T   T   T
  0.3297467736118815  0.3305685795359607  0.2507471761693115   T   T   T
  0.6727587973944696  0.3216005370511144  0.2441043257123713   T   T   T
  0.0075052332250321  0.6699338181131133  0.2423825398855471   T   T   T
  0.3337641755389494  0.6681664438879509  0.2428524657500018   T   T   T
  0.6675028072314307  0.6681975533274596  0.2453549769997214   T   T   T
  0.6536770066154736  0.4369731490069700  0.3599254754092089   T   T   T
  0.6707717469675024  0.5092987593789277  0.4078946647764425   T   T   T
  0.7569150920541887  0.4850234929268654  0.3134206045859454   T   T   T
  0.5446886132884931  0.3199697406813423  0.3478374587451596   T   T   T
 
             NaN             NaN             NaN
             NaN             NaN             NaN
             NaN             NaN             NaN
             NaN             NaN             NaN
             NaN             NaN             NaN
             NaN             NaN             NaN
             NaN             NaN             NaN
             NaN             NaN             NaN
             NaN             NaN             NaN
             NaN             NaN             NaN
             NaN             NaN             NaN
             NaN             NaN             NaN
             NaN             NaN             NaN
             NaN             NaN             NaN
             NaN             NaN             NaN
             NaN             NaN             NaN
             NaN             NaN             NaN
             NaN             NaN             NaN
             NaN             NaN             NaN
             NaN             NaN             NaN
             NaN             NaN             NaN
             NaN             NaN             NaN
             NaN             NaN             NaN
             NaN             NaN             NaN
             NaN             NaN             NaN
             NaN             NaN             NaN
             NaN             NaN             NaN
             NaN             NaN             NaN
             NaN             NaN             NaN
             NaN             NaN             NaN
             NaN             NaN             NaN
             NaN             NaN             NaN
             NaN             NaN             NaN
             NaN             NaN             NaN
             NaN             NaN             NaN
             NaN             NaN             NaN
             NaN             NaN             NaN
             NaN             NaN             NaN
             NaN             NaN             NaN
             NaN             NaN             NaN
