Cu   Pd   Cu   N    O 
   1.00000000000000     
   7.8488852711706798   0.0000000000000000   0.0000000000000000
   3.9244426355853399   6.7973340362233197   0.0000000000000000
   0.0000000000000000   0.0000000000000000  23.5447839840065001
Cu   Pd   Cu   N    O 
31  1  4  1  3  
Selective dynamics
Direct
  0.0000000000000000  0.0000000000000000  0.0000000000000000 F F F
  0.3333333333333357  0.0000000000000000  0.0000000000000000 F F F
  0.6666666666666636  0.0000000000000000  0.0000000000000000 F F F
 -0.0000000000000000  0.3333333333333358  0.0000000000000000 F F F
  0.3333333333333348  0.3333333333333358  0.0000000000000000 F F F
  0.6666666666666636  0.3333333333333358  0.0000000000000000 F F F
  0.9999999999999788  0.6666666666666643  0.0000000000000000 F F F
  0.3333333333333357  0.6666666666666643  0.0000000000000000 F F F
  0.6666666666666636  0.6666666666666643  0.0000000000000000 F F F
  0.1111111111111143  0.1111111111111143  0.0907290547856690 F F F
  0.4444444444444429  0.1111111111111143  0.0907290547856690 F F F
  0.7777777777777786  0.1111111111111143  0.0907290547856690 F F F
  0.1111111111111142  0.4444444444444429  0.0907290547856690 F F F
  0.4444444444444428  0.4444444444444429  0.0907290547856690 F F F
  0.7777777777777768  0.4444444444444429  0.0907290547856690 F F F
  0.1111111111111138  0.7777777777777787  0.0907290547856690 F F F
  0.4444444444444428  0.7777777777777787  0.0907290547856690 F F F
  0.7777777777777785  0.7777777777777787  0.0907290547856690 F F F
  0.8870961288575588  0.2230226901776220  0.1794841342400862 T T T
  0.2237716265085296  0.2228531606315578  0.1792141737784338 T T T
  0.5575218831095908  0.2219796228107339  0.1801445286326331 T T T
  0.8867438381879716  0.5565906727971567  0.1807163541715755 T T T
  0.2228106690503550  0.5566533985383839  0.1801849374953071 T T T
  0.5566061355477790  0.5559876213574313  0.1801233444946989 T T T
  0.8889959777742913  0.8881455721851234  0.1790902877065037 T T T
  0.2238953428676646  0.8861853478517546  0.1795301993532167 T T T
  0.5574601743106568  0.8859051491845927  0.1807332696867057 T T T
  0.9997894128261264  0.9986110842154984  0.2667125599607576 T T T
  0.3312898018687093  0.0011434551142494  0.2674207376923787 T T T
  0.6723960891891432  0.9948248204035416  0.2681771523177062 T T T
  0.0026680208929792  0.3299013569166456  0.2673859439241823 T T T
  0.3329779139382996  0.3314032122853610  0.2729137275372293 T T T
  0.6805110458822412  0.3226841431354502  0.2708446360672354 T T T
  0.9962982404736844  0.6708897031969452  0.2682061449120662 T T T
  0.3237024010831885  0.6792020210006688  0.2710818662599912 T T T
  0.6713092498699526  0.6698620738565418  0.2742018495261500 T T T
  0.4800622520528234  0.4589489678223641  0.4034172359731816 T T T
  0.5311388884790043  0.5029705539475523  0.4470941948238596 T T T
  0.5508388291708094  0.5494749352325243  0.3205282836149781 T T T
  0.3899620258210346  0.3700784245251873  0.3959079556419816 T T T
