 N  O                                   
   1.00000000000000     
     8.2095097295758208    0.0000000000000000    0.0000000000000000
     0.0000000000000000    8.2095097295758208    0.0000000000000000
     0.0000000000000000    0.0000000000000000   22.7399999999999984
   N    O 
     1     2
Direct
  0.5272872874763834  0.3334293338627177  0.3801795952147344
  0.5180552516537702  0.3334028473020254  0.4331523095884080
  0.6594800365428881  0.3331121689807475  0.3510472459877647
 
  0.00000000E+00  0.00000000E+00  0.00000000E+00
  0.00000000E+00  0.00000000E+00  0.00000000E+00
  0.00000000E+00  0.00000000E+00  0.00000000E+00
