Ni                                      
   1.00000000000000     
     7.5306872196367305    0.0000000000000000    0.0000000000000000
     0.0000000000000000    7.5306872196367305    0.0000000000000000
     0.0000000000000000    0.0000000000000000   22.1000000000000014
   Ni
    36
Selective dynamics
Direct
  0.1666666666666643  0.1666666666666643  0.0000000000000000   F   F   F
  0.5000000000000000  0.1666666666666643  0.0000000000000000   F   F   F
  0.8333333333333357  0.1666666666666643  0.0000000000000000   F   F   F
  0.1666666666666643  0.5000000000000000  0.0000000000000000   F   F   F
  0.5000000000000000  0.5000000000000000  0.0000000000000000   F   F   F
  0.8333333333333357  0.5000000000000000  0.0000000000000000   F   F   F
  0.1666666666666643  0.8333333333333357  0.0000000000000000   F   F   F
  0.5000000000000000  0.8333333333333357  0.0000000000000000   F   F   F
  0.8333333333333357  0.8333333333333357  0.0000000000000000   F   F   F
  0.0000000000000000  0.0000000000000000  0.0803167420814503   F   F   F
  0.3333333333333357  0.0000000000000000  0.0803167420814503   F   F   F
  0.6666666666666643  0.0000000000000000  0.0803167420814503   F   F   F
  0.0000000000000000  0.3333333333333357  0.0803167420814503   F   F   F
  0.3333333333333357  0.3333333333333357  0.0803167420814503   F   F   F
  0.6666666666666643  0.3333333333333357  0.0803167420814503   F   F   F
  0.0000000000000000  0.6666666666666643  0.0803167420814503   F   F   F
  0.3333333333333357  0.6666666666666643  0.0803167420814503   F   F   F
  0.6666666666666643  0.6666666666666643  0.0803167420814503   F   F   F
  0.1666631075269899  0.1666711536200612  0.1608654485635313   T   T   T
  0.5000072602825715  0.1666694384210446  0.1608653802255891   T   T   T
  0.8333298785715896  0.1666706798256960  0.1608652768683540   T   T   T
  0.1666629310906329  0.4999916011406892  0.1608648847233400   T   T   T
  0.5000079859058452  0.4999937812285082  0.1608650477132247   T   T   T
  0.8333291905812706  0.4999927179295706  0.1608648477579557   T   T   T
  0.1666641327146768  0.8333375503428202  0.1608649883410973   T   T   T
  0.5000083869457690  0.8333368067351998  0.1608657524011208   T   T   T
  0.8333275436736683  0.8333367066102848  0.1608649969978302   T   T   T
  0.9999910354952868  0.0000059749013700  0.2390257956346711   T   T   T
  0.3333371485290879  0.0000073707638934  0.2390233694276434   T   T   T
  0.6666716398460540  0.0000071862966203  0.2390313123794064   T   T   T
  0.9999914856445840  0.3333319882305097  0.2390314369129359   T   T   T
  0.3333370028963860  0.3333309332894559  0.2390262176465975   T   T   T
  0.6666713616783578  0.3333306699058274  0.2390336010489429   T   T   T
  0.9999913147194149  0.6666618530534792  0.2390228887995234   T   T   T
  0.3333358225317764  0.6666615846488289  0.2390197281178637   T   T   T
  0.6666727505472417  0.6666620102727840  0.2390287728689449   T   T   T
 
  0.00000000E+00  0.00000000E+00  0.00000000E+00
  0.00000000E+00  0.00000000E+00  0.00000000E+00
  0.00000000E+00  0.00000000E+00  0.00000000E+00
  0.00000000E+00  0.00000000E+00  0.00000000E+00
  0.00000000E+00  0.00000000E+00  0.00000000E+00
  0.00000000E+00  0.00000000E+00  0.00000000E+00
  0.00000000E+00  0.00000000E+00  0.00000000E+00
  0.00000000E+00  0.00000000E+00  0.00000000E+00
  0.00000000E+00  0.00000000E+00  0.00000000E+00
  0.00000000E+00  0.00000000E+00  0.00000000E+00
  0.00000000E+00  0.00000000E+00  0.00000000E+00
  0.00000000E+00  0.00000000E+00  0.00000000E+00
  0.00000000E+00  0.00000000E+00  0.00000000E+00
  0.00000000E+00  0.00000000E+00  0.00000000E+00
  0.00000000E+00  0.00000000E+00  0.00000000E+00
  0.00000000E+00  0.00000000E+00  0.00000000E+00
  0.00000000E+00  0.00000000E+00  0.00000000E+00
  0.00000000E+00  0.00000000E+00  0.00000000E+00
  0.00000000E+00  0.00000000E+00  0.00000000E+00
  0.00000000E+00  0.00000000E+00  0.00000000E+00
  0.00000000E+00  0.00000000E+00  0.00000000E+00
  0.00000000E+00  0.00000000E+00  0.00000000E+00
  0.00000000E+00  0.00000000E+00  0.00000000E+00
  0.00000000E+00  0.00000000E+00  0.00000000E+00
  0.00000000E+00  0.00000000E+00  0.00000000E+00
  0.00000000E+00  0.00000000E+00  0.00000000E+00
  0.00000000E+00  0.00000000E+00  0.00000000E+00
  0.00000000E+00  0.00000000E+00  0.00000000E+00
  0.00000000E+00  0.00000000E+00  0.00000000E+00
  0.00000000E+00  0.00000000E+00  0.00000000E+00
  0.00000000E+00  0.00000000E+00  0.00000000E+00
  0.00000000E+00  0.00000000E+00  0.00000000E+00
  0.00000000E+00  0.00000000E+00  0.00000000E+00
  0.00000000E+00  0.00000000E+00  0.00000000E+00
  0.00000000E+00  0.00000000E+00  0.00000000E+00
  0.00000000E+00  0.00000000E+00  0.00000000E+00
