Ni                                      
   1.00000000000000     
     7.5306872196367305    0.0000000000000000    0.0000000000000000
     0.0000000000000000    7.5306872196367305    0.0000000000000000
     0.0000000000000000    0.0000000000000000   22.1000000000000014
   Ni
    36
Selective dynamics
Direct
  0.1666666666666643  0.1666666666666643  0.0000000000000000   F   F   F
  0.5000000000000000  0.1666666666666643  0.0000000000000000   F   F   F
  0.8333333333333357  0.1666666666666643  0.0000000000000000   F   F   F
  0.1666666666666643  0.5000000000000000  0.0000000000000000   F   F   F
  0.5000000000000000  0.5000000000000000  0.0000000000000000   F   F   F
  0.8333333333333357  0.5000000000000000  0.0000000000000000   F   F   F
  0.1666666666666643  0.8333333333333357  0.0000000000000000   F   F   F
  0.5000000000000000  0.8333333333333357  0.0000000000000000   F   F   F
  0.8333333333333357  0.8333333333333357  0.0000000000000000   F   F   F
  0.0000000000000000  0.0000000000000000  0.0803167420814503   F   F   F
  0.3333333333333357  0.0000000000000000  0.0803167420814503   F   F   F
  0.6666666666666643  0.0000000000000000  0.0803167420814503   F   F   F
  0.0000000000000000  0.3333333333333357  0.0803167420814503   F   F   F
  0.3333333333333357  0.3333333333333357  0.0803167420814503   F   F   F
  0.6666666666666643  0.3333333333333357  0.0803167420814503   F   F   F
  0.0000000000000000  0.6666666666666643  0.0803167420814503   F   F   F
  0.3333333333333357  0.6666666666666643  0.0803167420814503   F   F   F
  0.6666666666666643  0.6666666666666643  0.0803167420814503   F   F   F
  0.1666690713834994  0.1666668902153932  0.1616807903657419   T   T   T
  0.5000001717736307  0.1666669809860451  0.1616801835450911   T   T   T
  0.8333307617809455  0.1666678097330921  0.1616811286182384   T   T   T
  0.1666692242885818  0.5000031093655242  0.1616799585625162   T   T   T
  0.5000001388913515  0.5000031326127257  0.1616788641386655   T   T   T
  0.8333306414669346  0.5000021388453222  0.1616794505262438   T   T   T
  0.1666700623725224  0.8333300073682670  0.1616809857696935   T   T   T
  0.4999991929353380  0.8333298922291393  0.1616790118833209   T   T   T
  0.8333307393500332  0.8333300467489907  0.1616796966431757   T   T   T
 -0.0000011228833391 -0.0000042797205749  0.2392737064377097   T   T   T
  0.3333384498887322 -0.0000041339031465  0.2392796871350808   T   T   T
  0.6666626633199382 -0.0000058707177166  0.2392803758604577   T   T   T
 -0.0000003078387342  0.3333388019502904  0.2392750983327461   T   T   T
  0.3333374092448427  0.3333384153688257  0.2392803500101490   T   T   T
  0.6666629198152129  0.3333393573341020  0.2392798622783412   T   T   T
 -0.0000020560354474  0.6666654728071234  0.2392806262519147   T   T   T
  0.3333389979816348  0.6666657415948765  0.2392848065769516   T   T   T
  0.6666630517294587  0.6666664991418275  0.2392869806361456   T   T   T
 
  0.00000000E+00  0.00000000E+00  0.00000000E+00
  0.00000000E+00  0.00000000E+00  0.00000000E+00
  0.00000000E+00  0.00000000E+00  0.00000000E+00
  0.00000000E+00  0.00000000E+00  0.00000000E+00
  0.00000000E+00  0.00000000E+00  0.00000000E+00
  0.00000000E+00  0.00000000E+00  0.00000000E+00
  0.00000000E+00  0.00000000E+00  0.00000000E+00
  0.00000000E+00  0.00000000E+00  0.00000000E+00
  0.00000000E+00  0.00000000E+00  0.00000000E+00
  0.00000000E+00  0.00000000E+00  0.00000000E+00
  0.00000000E+00  0.00000000E+00  0.00000000E+00
  0.00000000E+00  0.00000000E+00  0.00000000E+00
  0.00000000E+00  0.00000000E+00  0.00000000E+00
  0.00000000E+00  0.00000000E+00  0.00000000E+00
  0.00000000E+00  0.00000000E+00  0.00000000E+00
  0.00000000E+00  0.00000000E+00  0.00000000E+00
  0.00000000E+00  0.00000000E+00  0.00000000E+00
  0.00000000E+00  0.00000000E+00  0.00000000E+00
  0.00000000E+00  0.00000000E+00  0.00000000E+00
  0.00000000E+00  0.00000000E+00  0.00000000E+00
  0.00000000E+00  0.00000000E+00  0.00000000E+00
  0.00000000E+00  0.00000000E+00  0.00000000E+00
  0.00000000E+00  0.00000000E+00  0.00000000E+00
  0.00000000E+00  0.00000000E+00  0.00000000E+00
  0.00000000E+00  0.00000000E+00  0.00000000E+00
  0.00000000E+00  0.00000000E+00  0.00000000E+00
  0.00000000E+00  0.00000000E+00  0.00000000E+00
  0.00000000E+00  0.00000000E+00  0.00000000E+00
  0.00000000E+00  0.00000000E+00  0.00000000E+00
  0.00000000E+00  0.00000000E+00  0.00000000E+00
  0.00000000E+00  0.00000000E+00  0.00000000E+00
  0.00000000E+00  0.00000000E+00  0.00000000E+00
  0.00000000E+00  0.00000000E+00  0.00000000E+00
  0.00000000E+00  0.00000000E+00  0.00000000E+00
  0.00000000E+00  0.00000000E+00  0.00000000E+00
  0.00000000E+00  0.00000000E+00  0.00000000E+00
