Ni   N    O 
   1.00000000000000     
   7.5306872196367305   0.0000000000000000   0.0000000000000000
   0.0000000000000000   7.5306872196367305   0.0000000000000000
   0.0000000000000000   0.0000000000000000  22.1000000000000014
Ni   N    O 
36  1  3  
Selective dynamics
Direct
  0.1666666666666640  0.1666666666666640  0.0000000000000000 F F F
  0.5000000000000000  0.1666666666666640  0.0000000000000000 F F F
  0.8333333333333360  0.1666666666666640  0.0000000000000000 F F F
  0.1666666666666640  0.5000000000000000  0.0000000000000000 F F F
  0.5000000000000000  0.5000000000000000  0.0000000000000000 F F F
  0.8333333333333360  0.5000000000000000  0.0000000000000000 F F F
  0.1666666666666640  0.8333333333333360  0.0000000000000000 F F F
  0.5000000000000000  0.8333333333333360  0.0000000000000000 F F F
  0.8333333333333360  0.8333333333333360  0.0000000000000000 F F F
  0.0000000000000000  0.0000000000000000  0.0803167420814503 F F F
  0.3333333333333360  0.0000000000000000  0.0803167420814503 F F F
  0.6666666666666640  0.0000000000000000  0.0803167420814503 F F F
  0.0000000000000000  0.3333333333333360  0.0803167420814503 F F F
  0.3333333333333360  0.3333333333333360  0.0803167420814503 F F F
  0.6666666666666640  0.3333333333333360  0.0803167420814503 F F F
  0.0000000000000000  0.6666666666666640  0.0803167420814503 F F F
  0.3333333333333360  0.6666666666666640  0.0803167420814503 F F F
  0.6666666666666640  0.6666666666666640  0.0803167420814503 F F F
  0.1699791564902640  0.1685740447999680  0.1613123075191040 T T T
  0.5008647688220120  0.1696494365659550  0.1623135604079450 T T T
  0.8341950204430760  0.1701535673359370  0.1617788432249580 T T T
  0.1692278344314600  0.4979525096520660  0.1593351521659370 T T T
  0.4999217779836870  0.4966354351296330  0.1618739841487480 T T T
  0.8303102089850610  0.4984716445856070  0.1613685676571990 T T T
  0.1655988079027110  0.8340498685007630  0.1600479700261200 T T T
  0.4980291537279200  0.8313455639031350  0.1607297385434240 T T T
  0.8338184683026030  0.8330100582477160  0.1604684079491680 T T T
  0.0004952123506357  0.0020825075057260  0.2379465942896390 T T T
  0.3336048245195040  0.9959840132716810  0.2375612678612380 T T T
  0.6684619149220050  0.9963243792622480  0.2373143062080060 T T T
  0.0049380703938340  0.3375814275540630  0.2395821295980340 T T T
  0.3351511799306270  0.3283506095369050  0.2488918616927480 T T T
  0.6763900701952890  0.3338567486933430  0.2451883517469970 T T T
  0.9958997888187680  0.6711586620956000  0.2399237867740420 T T T
  0.3282139296003310  0.6655125909990720  0.2395258899277760 T T T
  0.6640244388382039  0.6693762521910860  0.2377180142112750 T T T
  0.4573379189657770  0.3033006338166690  0.3405793984709010 T T T
  0.4067940534877010  0.2903866770845770  0.3913306887938500 T T T
  0.6249483958356020  0.3107166250981310  0.3302472593263200 T T T
  0.2179360824078240  0.4551420418724280  0.2979195787202040 T T T
