Pd  N  O 
 1.0000000000000000
     8.4216417639317793    0.0000000000000000    0.0000000000000000
     4.2108208819658897    7.2933557091369101    0.0000000000000000
     0.0000000000000000    0.0000000000000000   24.1683222747312989
 Pd  N   O  
  36   1   3
Selective dynamics
Cartesian
  0.0000000000000000  0.0000000000000000  0.0000000000000000   F   F   F
  2.8072139213106131  0.0000000000000000  0.0000000000000000   F   F   F
  5.6144278426211667  0.0000000000000000  0.0000000000000000   F   F   F
  1.4036069606553065  2.4311185697123205  0.0000000000000000   F   F   F
  4.2108208819659199  2.4311185697123205  0.0000000000000000   F   F   F
  7.0180348032764730  2.4311185697123205  0.0000000000000000   F   F   F
  2.8072139213105829  4.8622371394245931  0.0000000000000000   F   F   F
  5.6144278426211969  4.8622371394245931  0.0000000000000000   F   F   F
  8.4216417639317491  4.8622371394245931  0.0000000000000000   F   F   F
  1.4036069606553361  0.8103728565707911  2.2920805686828589   F   F   F
  4.2108208819658897  0.8103728565707911  2.2920805686828589   F   F   F
  7.0180348032764961  0.8103728565707911  2.2920805686828589   F   F   F
  2.8072139213106126  3.2414914262830599  2.2920805686828589   F   F   F
  5.6144278426211667  3.2414914262830599  2.2920805686828589   F   F   F
  8.4216417639317793  3.2414914262830599  2.2920805686828589   F   F   F
  4.2108208819659199  5.6726099959953800  2.2920805686828589   F   F   F
  7.0180348032764730  5.6726099959953800  2.2920805686828589   F   F   F
  9.8252487245870856  5.6726099959953800  2.2920805686828589   F   F   F
  8.4456193803880701  1.6482754176159569  4.5619750645933586   F   F   F
  2.8253880531560789  1.6514850754007606  4.5583147106711337   F   F   F
  5.6341139010487460  1.6522951220391660  4.5735208784306023   F   F   F
  9.8484724202852973  4.0875408603621448  4.5694996276041522   F   F   F
  4.2218580288079579  4.0686312352665199  4.6176723512458526   F   F   F
  7.0388852954380221  4.0903923952080232  4.5618121890853010   F   F   F
 11.2221112960997438  6.5275978228331679  4.6361125456485723   F   F   F
  5.6235551406952018  6.5093995411526597  4.5638412964026580   F   F   F
  8.4448889498169990  6.5194823347627562  4.5726327111243288   F   F   F
  0.0735708599074193  0.0751439503696456  6.8957005742309461   F   F   F
  2.8154090004700838  0.0485025706515738  6.8394613864416574   F   F   F
  5.7217954044217061  0.0757995665087941  6.9561153652732184   F   F   F
  1.4522037575090354  2.5141408103827678  6.8588984571080003   F   F   F
  4.2566406495804179  2.5639989604464932  6.8898583027246048   F   F   F
  7.1013905659027570  2.5246872950439263  6.8453692499026761   F   F   F
  2.8610207183482608  4.9448084409954660  6.9067538110496489   F   F   F
  5.6783763522412141  4.9471468809943220  6.8874421371145695   F   F   F
  8.4823314486398989  4.9385256298236451  6.8654608563433444   F   F   F
  5.0819602466886433  1.6281049332004067  9.8079959528593594   T   T   T
  4.2266071104207654  2.1683093879583493 10.4946529377382909   T   T   T
  6.2724732921037161  1.4440946514656396 10.0331213520228957   T   T   T
  4.5751855997758373  1.1070163322523643  8.5308223500066465   T   T   T
