 N  O 
 1.0000000000000000
     17.8488852711706798    0.0000000000000000    0.0000000000000000
     0.0000000000000000    17.8488852711706798    0.0000000000000000
     0.0000000000000000    0.0000000000000000   22.3999999999999986
 N   O  
   1   2
Cartesian
  4.2102535819527764  3.7285503297208566  8.2055378645119390
  4.0840157713526217  4.2577586457185967  9.2858807294372134
  5.1540058114913467  3.0335495874857559  7.7914953976062620
