Cu   Pd   Cu   N    O 
   1.00000000000000     
   7.8488852711706798   0.0000000000000000   0.0000000000000000
   0.0000000000000000   7.8488852711706798   0.0000000000000000
   0.0000000000000000   0.0000000000000000  22.3999999999999986
Cu   Pd   Cu   N    O 
31  1  4  1  3  
Selective dynamics
Direct
  0.1666666666666643  0.1666666666666643  0.0000000000000000 F F F
  0.5000000000000000  0.1666666666666643  0.0000000000000000 F F F
  0.8333333333333357  0.1666666666666643  0.0000000000000000 F F F
  0.1666666666666643  0.5000000000000000  0.0000000000000000 F F F
  0.5000000000000000  0.5000000000000000  0.0000000000000000 F F F
  0.8333333333333357  0.5000000000000000  0.0000000000000000 F F F
  0.1666666666666643  0.8333333333333357  0.0000000000000000 F F F
  0.5000000000000000  0.8333333333333357  0.0000000000000000 F F F
  0.8333333333333357  0.8333333333333357  0.0000000000000000 F F F
  0.0000000000000000  0.0000000000000000  0.0825892857142847 F F F
  0.3333333333333357  0.0000000000000000  0.0825892857142847 F F F
  0.6666666666666643  0.0000000000000000  0.0825892857142847 F F F
  0.0000000000000000  0.3333333333333357  0.0825892857142847 F F F
  0.3333333333333357  0.3333333333333357  0.0825892857142847 F F F
  0.6666666666666643  0.3333333333333357  0.0825892857142847 F F F
  0.0000000000000000  0.6666666666666643  0.0825892857142847 F F F
  0.3333333333333357  0.6666666666666643  0.0825892857142847 F F F
  0.6666666666666643  0.6666666666666643  0.0825892857142847 F F F
  0.1694474583029796  0.1690580745372962  0.1619097562219612 T T T
  0.4988803083852470  0.1720362847158022  0.1655098275011171 T T T
  0.8323603905947345  0.1643712050709586  0.1652168115729804 T T T
  0.1701996742760043  0.4962826076059561  0.1644117760170242 T T T
  0.5046381718380570  0.5014726613504834  0.1644881106820018 T T T
  0.8364006170277398  0.4908331014531132  0.1655081822046145 T T T
  0.1632422420061225  0.8344375086115258  0.1641437215396604 T T T
  0.4945537455772230  0.8390919035139370  0.1641305339945895 T T T
  0.8326549782826763  0.8306826712075368  0.1636760186602922 T T T
  0.9808330019383670  0.9796122909973480  0.2475532089453567 T T T
  0.3231070443045443  0.0035167474445547  0.2470343055133714 T T T
  0.6558809818056434  0.9951300668009120  0.2417545613656614 T T T
  0.0075838568262364  0.3203746226813758  0.2472363633337270 T T T
  0.3445859541062870  0.3533976815096222  0.2544540574312591 T T T
  0.6846355998934803  0.3327806029320606  0.2486568323189405 T T T
  0.0007998335176666  0.6538189403060612  0.2419004349835406 T T T
  0.3366294610614943  0.6792435256811165  0.2422652213161398 T T T
  0.6704919862942014  0.6711053146559490  0.2415638065145931 T T T
  0.4648336785911500  0.3719900540018417  0.3412363894136911 T T T
  0.3976685248237706  0.3894224287385986  0.3900049216384129 T T T
  0.6302081076880783  0.3480472541443306  0.3386558558521766 T T T
  0.1386571902091606  0.1331990698961670  0.2853119229322083 T T T
