Pd   N    O 
   1.00000000000000     
   8.4216417639317793   0.0000000000000000   0.0000000000000000
   4.2108208819658897   7.2933557091369101   0.0000000000000000
   0.0000000000000000   0.0000000000000000  24.1683222747312989
Pd   N    O 
36  1  3  
Selective dynamics
Direct
  0.0000000000000000  0.0000000000000000  0.0000000000000000 F F F
  0.3333333333333357  0.0000000000000000  0.0000000000000000 F F F
  0.6666666666666643  0.0000000000000000  0.0000000000000000 F F F
  0.0000000000000000  0.3333333333333357  0.0000000000000000 F F F
  0.3333333333333357  0.3333333333333357  0.0000000000000000 F F F
  0.6666666666666643  0.3333333333333357  0.0000000000000000 F F F
  0.0000000000000000  0.6666666666666643  0.0000000000000000 F F F
  0.3333333333333357  0.6666666666666643  0.0000000000000000 F F F
  0.6666666666666643  0.6666666666666643  0.0000000000000000 F F F
  0.1111111111111143  0.1111111111111143  0.0948382160179690 F F F
  0.4444444444444429  0.1111111111111143  0.0948382160179690 F F F
  0.7777777777777786  0.1111111111111143  0.0948382160179690 F F F
  0.1111111111111143  0.4444444444444429  0.0948382160179690 F F F
  0.4444444444444429  0.4444444444444429  0.0948382160179690 F F F
  0.7777777777777786  0.4444444444444429  0.0948382160179690 F F F
  0.1111111111111143  0.7777777777777786  0.0948382160179690 F F F
  0.4444444444444429  0.7777777777777786  0.0948382160179690 F F F
  0.7777777777777786  0.7777777777777786  0.0948382160179690 F F F
  0.8861084298972797  0.2239719837743803  0.1908670486005977 T T T
  0.2231939375141275  0.2239675869022303  0.1908713429993139 T T T
  0.5553035520663068  0.2226640374047199  0.1899461515481684 T T T
  0.8889035770292724  0.5554494787699947  0.1891375241047370 T T T
  0.2228648633950681  0.5539985022741161  0.1900805799580713 T T T
  0.5563967238722970  0.5540011885407902  0.1900820574281371 T T T
  0.8897673856636839  0.8882861525716047  0.1885905241810424 T T T
  0.2216302390773312  0.8899952559279328  0.1885364871392637 T T T
  0.5551811513180958  0.8882877681746143  0.1885996888920463 T T T
  0.0010706454644686  0.9988569474694950  0.2846150498684094 T T T
  0.3331522905802266  0.9988407945671790  0.2846262762490671 T T T
  0.6687239316807321  0.9956453762150932  0.2829799994878614 T T T
  0.9999751365070600  0.3331456236964952  0.2850183591579433 T T T
  0.3347186768033286  0.3333938392055414  0.2884147454018056 T T T
  0.6649555368177965  0.3334211457643411  0.2884213620555997 T T T
  0.9990550492612180  0.6672847891205327  0.2841754771722111 T T T
  0.3303773496187909  0.6723924814770528  0.2835201696828497 T T T
  0.6668500284964015  0.6672547084915866  0.2841778226156321 T T T
  0.5007143097408808  0.3313858973760151  0.4038825855806542 T T T
  0.5016713813668685  0.3292466921156588  0.4547459153123439 T T T
  0.6353056861442564  0.3323981108948018  0.3774447941333814 T T T
  0.3650159446338199  0.3326521962153410  0.3774106486544584 T T T
