 N  O  H                                
   1.00000000000000     
    15.0000000000000000    0.0000000000000000    0.0000000000000000
     0.0000000000000000   15.0000000000000000    0.0000000000000000
     0.0000000000000000    0.0000000000000000   15.0000000000000000
   N    O    H 
     1     3     1
Direct
  0.4659674683970633  0.4657687721578853  0.4634111336588534
  0.4573716318586057  0.4660328793332805  0.5605348509450573
  0.5425872003190935  0.4658222369875188  0.4347293774042755
  0.3948057993496281  0.4655172371596497  0.4249235410647158
  0.5200503517701739  0.4665884004162434  0.5796813156640818
 
  0.00000000E+00  0.00000000E+00  0.00000000E+00
  0.00000000E+00  0.00000000E+00  0.00000000E+00
  0.00000000E+00  0.00000000E+00  0.00000000E+00
  0.00000000E+00  0.00000000E+00  0.00000000E+00
  0.00000000E+00  0.00000000E+00  0.00000000E+00
