Cu                                      
   1.00000000000000     
     7.8488852711706780    0.0000000000000000    0.0000000000000000
     3.9244426355853390    6.7973340362233188    0.0000000000000000
     0.0000000000000000    0.0000000000000000   23.5447839840064646
   Cu
    36
Selective dynamics
Direct
  0.0000000000000000  0.0000000000000000  0.0000000000000000   F   F   F
  0.3333333333333357  0.0000000000000000  0.0000000000000000   F   F   F
  0.6666666666666643  0.0000000000000000  0.0000000000000000   F   F   F
  0.0000000000000000  0.3333333333333357  0.0000000000000000   F   F   F
  0.3333333333333357  0.3333333333333357  0.0000000000000000   F   F   F
  0.6666666666666643  0.3333333333333357  0.0000000000000000   F   F   F
  0.0000000000000000  0.6666666666666643  0.0000000000000000   F   F   F
  0.3333333333333357  0.6666666666666643  0.0000000000000000   F   F   F
  0.6666666666666643  0.6666666666666643  0.0000000000000000   F   F   F
  0.1111111111111143  0.1111111111111143  0.0907290547856689   F   F   F
  0.4444444444444429  0.1111111111111143  0.0907290547856689   F   F   F
  0.7777777777777786  0.1111111111111143  0.0907290547856689   F   F   F
  0.1111111111111143  0.4444444444444429  0.0907290547856689   F   F   F
  0.4444444444444429  0.4444444444444429  0.0907290547856689   F   F   F
  0.7777777777777786  0.4444444444444429  0.0907290547856689   F   F   F
  0.1111111111111143  0.7777777777777786  0.0907290547856689   F   F   F
  0.4444444444444429  0.7777777777777786  0.0907290547856689   F   F   F
  0.7777777777777786  0.7777777777777786  0.0907290547856689   F   F   F
  0.8888890995717681  0.2222223419155935  0.1798045387017299   T   T   T
  0.2222223248114339  0.2222223712933834  0.1798044757247899   T   T   T
  0.5555558464656194  0.2222223024091089  0.1798044874629006   T   T   T
  0.8888889562262263  0.5555558199614218  0.1798045405190447   T   T   T
  0.2222223210915598  0.5555558590982956  0.1798044941209351   T   T   T
  0.5555557719868029  0.5555557854780048  0.1798045322900618   T   T   T
  0.8888890417375759  0.8888890990412499  0.1798045574385906   T   T   T
  0.2222222929982632  0.8888891124322096  0.1798045314562278   T   T   T
  0.5555558668911829  0.8888890001532623  0.1798045449819823   T   T   T
  0.0000003025223828  0.0000003408731804  0.2682985502961435   T   T   T
  0.3333336607636295  0.0000002829754830  0.2682985096836842   T   T   T
  0.6666670479227934  0.0000002879972130  0.2682985347326364   T   T   T
  0.0000002874959647  0.3333335982275695  0.2682985309765140   T   T   T
  0.3333336837219029  0.3333335740455383  0.2682985488371205   T   T   T
  0.6666670957588638  0.3333335546230512  0.2682984889489721   T   T   T
  0.0000002600000647  0.6666670185555511  0.2682985503263593   T   T   T
  0.3333336300303427  0.6666670538762984  0.2682984980979796   T   T   T
  0.6666670212017667  0.6666669781562197  0.2682985413265597   T   T   T
 
  0.00000000E+00  0.00000000E+00  0.00000000E+00
  0.00000000E+00  0.00000000E+00  0.00000000E+00
  0.00000000E+00  0.00000000E+00  0.00000000E+00
  0.00000000E+00  0.00000000E+00  0.00000000E+00
  0.00000000E+00  0.00000000E+00  0.00000000E+00
  0.00000000E+00  0.00000000E+00  0.00000000E+00
  0.00000000E+00  0.00000000E+00  0.00000000E+00
  0.00000000E+00  0.00000000E+00  0.00000000E+00
  0.00000000E+00  0.00000000E+00  0.00000000E+00
  0.00000000E+00  0.00000000E+00  0.00000000E+00
  0.00000000E+00  0.00000000E+00  0.00000000E+00
  0.00000000E+00  0.00000000E+00  0.00000000E+00
  0.00000000E+00  0.00000000E+00  0.00000000E+00
  0.00000000E+00  0.00000000E+00  0.00000000E+00
  0.00000000E+00  0.00000000E+00  0.00000000E+00
  0.00000000E+00  0.00000000E+00  0.00000000E+00
  0.00000000E+00  0.00000000E+00  0.00000000E+00
  0.00000000E+00  0.00000000E+00  0.00000000E+00
  0.00000000E+00  0.00000000E+00  0.00000000E+00
  0.00000000E+00  0.00000000E+00  0.00000000E+00
  0.00000000E+00  0.00000000E+00  0.00000000E+00
  0.00000000E+00  0.00000000E+00  0.00000000E+00
  0.00000000E+00  0.00000000E+00  0.00000000E+00
  0.00000000E+00  0.00000000E+00  0.00000000E+00
  0.00000000E+00  0.00000000E+00  0.00000000E+00
  0.00000000E+00  0.00000000E+00  0.00000000E+00
  0.00000000E+00  0.00000000E+00  0.00000000E+00
  0.00000000E+00  0.00000000E+00  0.00000000E+00
  0.00000000E+00  0.00000000E+00  0.00000000E+00
  0.00000000E+00  0.00000000E+00  0.00000000E+00
  0.00000000E+00  0.00000000E+00  0.00000000E+00
  0.00000000E+00  0.00000000E+00  0.00000000E+00
  0.00000000E+00  0.00000000E+00  0.00000000E+00
  0.00000000E+00  0.00000000E+00  0.00000000E+00
  0.00000000E+00  0.00000000E+00  0.00000000E+00
  0.00000000E+00  0.00000000E+00  0.00000000E+00
