Cu   Ni   Cu   N    O 
   1.00000000000000     
   7.8488852711706798   0.0000000000000000   0.0000000000000000
   3.9244426355853399   6.7973340362233197   0.0000000000000000
   0.0000000000000000   0.0000000000000000  23.5447839840065001
Cu   Ni   Cu   N    O 
31  1  4  1  3  
Selective dynamics
Direct
  0.0000000000000000  0.0000000000000000  0.0000000000000000 F F F
  0.3333333333333357  0.0000000000000000  0.0000000000000000 F F F
  0.6666666666666643  0.0000000000000000  0.0000000000000000 F F F
  0.0000000000000000  0.3333333333333357  0.0000000000000000 F F F
  0.3333333333333357  0.3333333333333357  0.0000000000000000 F F F
  0.6666666666666643  0.3333333333333357  0.0000000000000000 F F F
  0.0000000000000000  0.6666666666666643  0.0000000000000000 F F F
  0.3333333333333357  0.6666666666666643  0.0000000000000000 F F F
  0.6666666666666643  0.6666666666666643  0.0000000000000000 F F F
  0.1111111111111143  0.1111111111111143  0.0907290547856689 F F F
  0.4444444444444429  0.1111111111111143  0.0907290547856689 F F F
  0.7777777777777786  0.1111111111111143  0.0907290547856689 F F F
  0.1111111111111143  0.4444444444444429  0.0907290547856689 F F F
  0.4444444444444429  0.4444444444444429  0.0907290547856689 F F F
  0.7777777777777786  0.4444444444444429  0.0907290547856689 F F F
  0.1111111111111143  0.7777777777777786  0.0907290547856689 F F F
  0.4444444444444429  0.7777777777777786  0.0907290547856689 F F F
  0.7777777777777786  0.7777777777777786  0.0907290547856689 F F F
  0.8855539704892816  0.2242884235681169  0.1807441307337365 T T T
  0.2251680804052264  0.2240779469429910  0.1801773523934259 T T T
  0.5543989317464089  0.2246684334090107  0.1810450429023064 T T T
  0.8899389041218280  0.5548176866851872  0.1793392643118263 T T T
  0.2245134038633387  0.5519865472742274  0.1800756490246111 T T T
  0.5572089943809517  0.5528588879571877  0.1803283951673425 T T T
  0.8896380311670875  0.8888811652255060  0.1792778664396575 T T T
  0.2225546378108424  0.8897515113280936  0.1789167794912482 T T T
  0.5552774282842865  0.8891254549995387  0.1789785707373397 T T T
  0.0026138024009598  0.9983279853577974  0.2671078097491409 T T T
  0.3339399317443771  0.0001043633428371  0.2671961348657233 T T T
  0.6688888863998205  0.9954018480227091  0.2663919398037991 T T T
  0.0026714534142834  0.3338051130128279  0.2671073158249708 T T T
  0.3338463661516284  0.3339773929075684  0.2698062703603950 T T T
  0.6671087889902043  0.3334985931799360  0.2718275132473535 T T T
  0.0006183126582524  0.6664510638758805  0.2674111943303378 T T T
  0.3308749791086513  0.6713269976007039  0.2663235362806715 T T T
  0.6681964411418109  0.6681116043968913  0.2669688198921153 T T T
  0.4874446843836899  0.3366418425316032  0.3838898720278568 T T T
  0.4741094881470521  0.3387422040510136  0.4358450947049998 T T T
  0.6350568902033578  0.3374365838266222  0.3590817766678976 T T T
  0.3486297487444717  0.3336263714025844  0.3528596509431975 T T T
