Cu   Pd   Cu   N    O                   
   1.00000000000000     
     7.8488852711706798    0.0000000000000000    0.0000000000000000
     3.9244426355853399    6.7973340362233197    0.0000000000000000
     0.0000000000000000    0.0000000000000000   23.5447839840065001
   Cu   Pd   Cu   N    O 
    31     1     4     1     3
Selective dynamics
Direct
  0.0000000000000000  0.0000000000000000  0.0000000000000000   F   F   F
  0.3333333333333357  0.0000000000000000  0.0000000000000000   F   F   F
  0.6666666666666636  0.0000000000000000  0.0000000000000000   F   F   F
 -0.0000000000000000  0.3333333333333358  0.0000000000000000   F   F   F
  0.3333333333333348  0.3333333333333358  0.0000000000000000   F   F   F
  0.6666666666666636  0.3333333333333358  0.0000000000000000   F   F   F
  0.9999999999999787  0.6666666666666643  0.0000000000000000   F   F   F
  0.3333333333333357  0.6666666666666643  0.0000000000000000   F   F   F
  0.6666666666666636  0.6666666666666643  0.0000000000000000   F   F   F
  0.1111111111111143  0.1111111111111143  0.0907290547856690   F   F   F
  0.4444444444444429  0.1111111111111143  0.0907290547856690   F   F   F
  0.7777777777777786  0.1111111111111143  0.0907290547856690   F   F   F
  0.1111111111111142  0.4444444444444429  0.0907290547856690   F   F   F
  0.4444444444444428  0.4444444444444429  0.0907290547856690   F   F   F
  0.7777777777777768  0.4444444444444429  0.0907290547856690   F   F   F
  0.1111111111111138  0.7777777777777787  0.0907290547856690   F   F   F
  0.4444444444444428  0.7777777777777787  0.0907290547856690   F   F   F
  0.7777777777777785  0.7777777777777787  0.0907290547856690   F   F   F
  0.8856753176630071  0.2224217653524204  0.1796051884543734   T   T   T
  0.2225269055818736  0.2217054799124312  0.1789621029883656   T   T   T
  0.5567108302896038  0.2210505845391126  0.1797901285241875   T   T   T
  0.8858867067249162  0.5551626958126613  0.1806466463904279   T   T   T
  0.2217796920277215  0.5560343070561756  0.1798466193511105   T   T   T
  0.5555523330037290  0.5550197460008062  0.1808283382858824   T   T   T
  0.8880840295888581  0.8873828601608451  0.1790006768973350   T   T   T
  0.2232895041782745  0.8847647499814203  0.1796893091799065   T   T   T
  0.5559356004691500  0.8851266143626331  0.1806403439001839   T   T   T
  0.9986635580163977  0.9972667677647692  0.2669302086992610   T   T   T
  0.3305914088465063  0.9978404017316690  0.2673263812849730   T   T   T
  0.6702359260415512  0.9930308328354791  0.2681248690860349   T   T   T
  0.9992018172749689  0.3292862112464687  0.2672704047003703   T   T   T
  0.3306296813534684  0.3295926551513008  0.2716737526844440   T   T   T
  0.6771608770994552  0.3225227557249506  0.2704334166346961   T   T   T
  0.9942759719151136  0.6690758217900784  0.2681706281064778   T   T   T
  0.3238899662360499  0.6757072064809149  0.2708189939657390   T   T   T
  0.6686349601991199  0.6674042779339594  0.2723728423753521   T   T   T
  0.4874552285449417  0.4748527844378694  0.3950953749563428   T   T   T
  0.5471815738301420  0.5259179472635067  0.4353358088001411   T   T   T
  0.5374032388009163  0.5337870460512987  0.3316591933431939   T   T   T
  0.3963859694933056  0.3862656296079696  0.3931108532018146   T   T   T
 
             NaN             NaN             NaN
             NaN             NaN             NaN
             NaN             NaN             NaN
             NaN             NaN             NaN
             NaN             NaN             NaN
             NaN             NaN             NaN
             NaN             NaN             NaN
             NaN             NaN             NaN
             NaN             NaN             NaN
             NaN             NaN             NaN
             NaN             NaN             NaN
             NaN             NaN             NaN
             NaN             NaN             NaN
             NaN             NaN             NaN
             NaN             NaN             NaN
             NaN             NaN             NaN
             NaN             NaN             NaN
             NaN             NaN             NaN
             NaN             NaN             NaN
             NaN             NaN             NaN
             NaN             NaN             NaN
             NaN             NaN             NaN
             NaN             NaN             NaN
             NaN             NaN             NaN
             NaN             NaN             NaN
             NaN             NaN             NaN
             NaN             NaN             NaN
             NaN             NaN             NaN
             NaN             NaN             NaN
             NaN             NaN             NaN
             NaN             NaN             NaN
             NaN             NaN             NaN
             NaN             NaN             NaN
             NaN             NaN             NaN
             NaN             NaN             NaN
             NaN             NaN             NaN
             NaN             NaN             NaN
             NaN             NaN             NaN
             NaN             NaN             NaN
             NaN             NaN             NaN
