Ni  N  O                                
   1.00000000000000     
     7.5306872196367305    0.0000000000000000    0.0000000000000000
     0.0000000000000000    7.5306872196367305    0.0000000000000000
     0.0000000000000000    0.0000000000000000   22.1000000000000014
   Ni   N    O 
    36     1     3
Selective dynamics
Direct
  0.1666666666666643  0.1666666666666643  0.0000000000000000   F   F   F
  0.5000000000000000  0.1666666666666643  0.0000000000000000   F   F   F
  0.8333333333333357  0.1666666666666643  0.0000000000000000   F   F   F
  0.1666666666666643  0.5000000000000000  0.0000000000000000   F   F   F
  0.5000000000000000  0.5000000000000000  0.0000000000000000   F   F   F
  0.8333333333333357  0.5000000000000000  0.0000000000000000   F   F   F
  0.1666666666666643  0.8333333333333357  0.0000000000000000   F   F   F
  0.5000000000000000  0.8333333333333357  0.0000000000000000   F   F   F
  0.8333333333333357  0.8333333333333357  0.0000000000000000   F   F   F
  0.0000000000000000  0.0000000000000000  0.0803167420814503   F   F   F
  0.3333333333333357  0.0000000000000000  0.0803167420814503   F   F   F
  0.6666666666666643  0.0000000000000000  0.0803167420814503   F   F   F
  0.0000000000000000  0.3333333333333357  0.0803167420814503   F   F   F
  0.3333333333333357  0.3333333333333357  0.0803167420814503   F   F   F
  0.6666666666666643  0.3333333333333357  0.0803167420814503   F   F   F
  0.0000000000000000  0.6666666666666643  0.0803167420814503   F   F   F
  0.3333333333333357  0.6666666666666643  0.0803167420814503   F   F   F
  0.6666666666666643  0.6666666666666643  0.0803167420814503   F   F   F
  0.1691923061631050  0.1685600862419560  0.1619903190397522   T   T   T
  0.5001533070985227  0.1698242321033724  0.1625206858576678   T   T   T
  0.8310482072025464  0.1685940670183962  0.1620302135585400   T   T   T
  0.1691930288699197  0.4981296328519950  0.1619984654186901   T   T   T
  0.5001416344505452  0.4968371081434976  0.1625124320018836   T   T   T
  0.8310614433952171  0.4980312298391117  0.1620243266794377   T   T   T
  0.1664960263923328  0.8333445228538228  0.1606070825751328   T   T   T
  0.4999765998345083  0.8333403732871889  0.1606502946133471   T   T   T
  0.8334825709806013  0.8333352216682888  0.1606111351880813   T   T   T
  0.0000345464060499 -0.0010599259651016  0.2382160953491695   T   T   T
  0.3328845496669939 -0.0029975798949795  0.2381500461076315   T   T   T
  0.6671025486866955 -0.0030379393364913  0.2381623038542291   T   T   T
  0.0005536632678940  0.3332920187667228  0.2380187759332257   T   T   T
  0.3313738591194630  0.3334424252431716  0.2458394382828038   T   T   T
  0.6693928038706712  0.3333777882674082  0.2458845291031254   T   T   T
  0.0000276359378332  0.6677099503885504  0.2382178632956462   T   T   T
  0.3328991982044373  0.6697335353804057  0.2381567626012298   T   T   T
  0.6671285585351910  0.6696963701035135  0.2381571187676148   T   T   T
  0.5002285966996864  0.3325272024041557  0.3643900259440254   T   T   T
  0.5000575370701625  0.3315021321667863  0.4198403196088207   T   T   T
  0.6507322744238728  0.3331663070396989  0.3345028127703875   T   T   T
  0.3498411945916259  0.3329957476552213  0.3343960769318720   T   T   T
 
  0.00000000E+00  0.00000000E+00  0.00000000E+00
  0.00000000E+00  0.00000000E+00  0.00000000E+00
  0.00000000E+00  0.00000000E+00  0.00000000E+00
  0.00000000E+00  0.00000000E+00  0.00000000E+00
  0.00000000E+00  0.00000000E+00  0.00000000E+00
  0.00000000E+00  0.00000000E+00  0.00000000E+00
  0.00000000E+00  0.00000000E+00  0.00000000E+00
  0.00000000E+00  0.00000000E+00  0.00000000E+00
  0.00000000E+00  0.00000000E+00  0.00000000E+00
  0.00000000E+00  0.00000000E+00  0.00000000E+00
  0.00000000E+00  0.00000000E+00  0.00000000E+00
  0.00000000E+00  0.00000000E+00  0.00000000E+00
  0.00000000E+00  0.00000000E+00  0.00000000E+00
  0.00000000E+00  0.00000000E+00  0.00000000E+00
  0.00000000E+00  0.00000000E+00  0.00000000E+00
  0.00000000E+00  0.00000000E+00  0.00000000E+00
  0.00000000E+00  0.00000000E+00  0.00000000E+00
  0.00000000E+00  0.00000000E+00  0.00000000E+00
  0.00000000E+00  0.00000000E+00  0.00000000E+00
  0.00000000E+00  0.00000000E+00  0.00000000E+00
  0.00000000E+00  0.00000000E+00  0.00000000E+00
  0.00000000E+00  0.00000000E+00  0.00000000E+00
  0.00000000E+00  0.00000000E+00  0.00000000E+00
  0.00000000E+00  0.00000000E+00  0.00000000E+00
  0.00000000E+00  0.00000000E+00  0.00000000E+00
  0.00000000E+00  0.00000000E+00  0.00000000E+00
  0.00000000E+00  0.00000000E+00  0.00000000E+00
  0.00000000E+00  0.00000000E+00  0.00000000E+00
  0.00000000E+00  0.00000000E+00  0.00000000E+00
  0.00000000E+00  0.00000000E+00  0.00000000E+00
  0.00000000E+00  0.00000000E+00  0.00000000E+00
  0.00000000E+00  0.00000000E+00  0.00000000E+00
  0.00000000E+00  0.00000000E+00  0.00000000E+00
  0.00000000E+00  0.00000000E+00  0.00000000E+00
  0.00000000E+00  0.00000000E+00  0.00000000E+00
  0.00000000E+00  0.00000000E+00  0.00000000E+00
  0.00000000E+00  0.00000000E+00  0.00000000E+00
  0.00000000E+00  0.00000000E+00  0.00000000E+00
  0.00000000E+00  0.00000000E+00  0.00000000E+00
  0.00000000E+00  0.00000000E+00  0.00000000E+00
