 N  O                                   
   1.00000000000000     
    18.2095097295758208    0.0000000000000000    0.0000000000000000
     0.0000000000000000   18.2095097295758208    0.0000000000000000
     0.0000000000000000    0.0000000000000000   22.7399999999999984
   N    O 
     1     2
Direct
  0.2377203000577381  0.1503220790192970  0.3801795952147344
  0.2335581623047105  0.1503101379137490  0.4331523095884080
  0.2973176025528232  0.1501790895471444  0.3510472459877647
 
  0.00000000E+00  0.00000000E+00  0.00000000E+00
  0.00000000E+00  0.00000000E+00  0.00000000E+00
  0.00000000E+00  0.00000000E+00  0.00000000E+00
