 N  O 
 1.0000000000000000
     18.2095097295758208    0.0000000000000000    0.0000000000000000
     0.0000000000000000    18.2095097295758208    0.0000000000000000
     0.0000000000000000    0.0000000000000000   22.7399999999999984
 N   O  
   1   2
Cartesian
  4.3287701168190234  2.7372913604719944  8.6452839951830285
  4.2529796289095003  2.7370739187942732  9.8498835200403292
  5.4140077764598322  2.7346875922875356  7.9828143737618058

