Pd  N  O 
 1.0000000000000000
     8.4216417639317811    0.0000000000000000    0.0000000000000000
     0.0000000000000000    8.4216417639317811    0.0000000000000000
     0.0000000000000000    0.0000000000000000   22.9400000000000013
 Pd  N   O  
  36   1   3
Selective dynamics
Cartesian
  1.4036069606552968  1.4036069606552968  0.0000000000000000   F   F   F
  4.2108208819658905  1.4036069606552968  0.0000000000000000   F   F   F
  7.0180348032764837  1.4036069606552968  0.0000000000000000   F   F   F
  1.4036069606552968  4.2108208819658905  0.0000000000000000   F   F   F
  4.2108208819658905  4.2108208819658905  0.0000000000000000   F   F   F
  7.0180348032764837  4.2108208819658905  0.0000000000000000   F   F   F
  1.4036069606552968  7.0180348032764837  0.0000000000000000   F   F   F
  4.2108208819658905  7.0180348032764837  0.0000000000000000   F   F   F
  7.0180348032764837  7.0180348032764837  0.0000000000000000   F   F   F
  0.0000000000000000  0.0000000000000000  1.9850000000000001   F   F   F
  2.8072139213105936  0.0000000000000000  1.9850000000000001   F   F   F
  5.6144278426211871  0.0000000000000000  1.9850000000000001   F   F   F
  0.0000000000000000  2.8072139213105936  1.9850000000000001   F   F   F
  2.8072139213105936  2.8072139213105936  1.9850000000000001   F   F   F
  5.6144278426211871  2.8072139213105936  1.9850000000000001   F   F   F
  0.0000000000000000  5.6144278426211871  1.9850000000000001   F   F   F
  2.8072139213105936  5.6144278426211871  1.9850000000000001   F   F   F
  5.6144278426211871  5.6144278426211871  1.9850000000000001   F   F   F
  1.4036069606552968  1.4036069606552968  3.9700000000000002   T   T   T
  4.2108208819658905  1.4036069606552968  3.9700000000000002   T   T   T
  7.0180348032764837  1.4036069606552968  3.9700000000000002   T   T   T
  1.4036069606552968  4.2108208819658905  3.9700000000000002   T   T   T
  4.2108208819658905  4.2108208819658905  3.9700000000000002   T   T   T
  7.0180348032764837  4.2108208819658905  3.9700000000000002   T   T   T
  1.4036069606552968  7.0180348032764837  3.9700000000000002   T   T   T
  4.2108208819658905  7.0180348032764837  3.9700000000000002   T   T   T
  7.0180348032764837  7.0180348032764837  3.9700000000000002   T   T   T
  0.0000000000000000  0.0000000000000000  5.9550000000000001   T   T   T
  2.8072139213105936  0.0000000000000000  5.9550000000000001   T   T   T
  5.6144278426211871  0.0000000000000000  5.9550000000000001   T   T   T
  0.0000000000000000  2.8072139213105936  5.9550000000000001   T   T   T
  2.8072139213105936  2.8072139213105936  5.9550000000000001   T   T   T
  5.6144278426211871  2.8072139213105936  5.9550000000000001   T   T   T
  0.0000000000000000  5.6144278426211871  5.9550000000000001   T   T   T
  2.8072139213105936  5.6144278426211871  5.9550000000000001   T   T   T
  5.6144278426211871  5.6144278426211871  5.9550000000000001   T   T   T
  4.2000000000000037  2.8000000000000003  8.6550000000000011   T   T   T
  4.2000000000000037  2.8000000000000003  9.9037250000000014   T   T   T
  5.2821420000000039  2.8000000000000003  8.0289610000000007   T   T   T
  3.1178579999999996  2.8000000000000003  8.0289610000000007   T   T   T

