Rh   N    O                             
   1.00000000000000     
     8.2095097295758208    0.0000000000000000    0.0000000000000000
     4.1047548647879104    7.1096439784281698    0.0000000000000000
     0.0000000000000000    0.0000000000000000   23.9373821670554001
   Rh   N    O 
    36     1     3
Selective dynamics
Direct
  0.0000000000000000  0.0000000000000000  0.0000000000000000   F   F   F
  0.3333333333333357  0.0000000000000000  0.0000000000000000   F   F   F
  0.6666666666666643  0.0000000000000000  0.0000000000000000   F   F   F
  0.0000000000000000  0.3333333333333357  0.0000000000000000   F   F   F
  0.3333333333333357  0.3333333333333357  0.0000000000000000   F   F   F
  0.6666666666666643  0.3333333333333357  0.0000000000000000   F   F   F
  0.9999999999999716  0.6666666666666643  0.0000000000000000   F   F   F
  0.3333333333333357  0.6666666666666643  0.0000000000000000   F   F   F
  0.6666666666666643  0.6666666666666643  0.0000000000000000   F   F   F
  0.1111111111111143  0.1111111111111143  0.0933412653969725   F   F   F
  0.4444444444444429  0.1111111111111143  0.0933412653969725   F   F   F
  0.7777777777777786  0.1111111111111143  0.0933412653969725   F   F   F
  0.1111111111111143  0.4444444444444429  0.0933412653969725   F   F   F
  0.4444444444444429  0.4444444444444429  0.0933412653969725   F   F   F
  0.7777777777777786  0.4444444444444429  0.0933412653969725   F   F   F
  0.1111111111111143  0.7777777777777786  0.0933412653969725   F   F   F
  0.4444444444444429  0.7777777777777786  0.0933412653969725   F   F   F
  0.7777777777777786  0.7777777777777786  0.0933412653969725   F   F   F
  0.8870857665415244  0.2231786528749495  0.1842762334392134   T   T   T
  0.2213732295755193  0.2225486741009775  0.1835584190080510   T   T   T
  0.5551202962920598  0.2227725844943791  0.1834272069815199   T   T   T
  0.8883116936213966  0.5559537979673905  0.1836470343902974   T   T   T
  0.2220825792294363  0.5534434542548397  0.1851317612224008   T   T   T
  0.5557550074146249  0.5547587516866770  0.1843462932830775   T   T   T
  0.8855786188051127  0.8897036324124130  0.1851478862287621   T   T   T
  0.2209536073236009  0.8887278520768760  0.1832038967481040   T   T   T
  0.5552109152080291  0.8892535862682323  0.1837335755177776   T   T   T
  0.0026880896657744  0.9988567508051034  0.2748043307526729   T   T   T
  0.3294750122840213  0.9980897799677138  0.2750834898373569   T   T   T
  0.6644146210408692  0.0053876540489810  0.2782658097293407   T   T   T
  0.9990512767455755  0.3354567083851094  0.2747608592526234   T   T   T
  0.3334419905256283  0.3342028678343993  0.2773078335417267   T   T   T
  0.6695653701288649  0.3387982372744958  0.2774041831907539   T   T   T
  0.9982212349904174  0.6681880983131734  0.2754398814456707   T   T   T
  0.3301798610363065  0.6712837687636082  0.2747120156381087   T   T   T
  0.6665373018614744  0.6686012394754073  0.2748512027296144   T   T   T
  0.5527951992050859  0.2606853569289740  0.3924781428511110   T   T   T
  0.5039430283878374  0.2597886370301552  0.4398843123011389   T   T   T
  0.6453120500764484  0.3302357026146510  0.3732808303477952   T   T   T
  0.4794676027071816  0.1535444278420925  0.3429565087007376   T   T   T
 
  0.00000000E+00  0.00000000E+00  0.00000000E+00
  0.00000000E+00  0.00000000E+00  0.00000000E+00
  0.00000000E+00  0.00000000E+00  0.00000000E+00
  0.00000000E+00  0.00000000E+00  0.00000000E+00
  0.00000000E+00  0.00000000E+00  0.00000000E+00
  0.00000000E+00  0.00000000E+00  0.00000000E+00
  0.00000000E+00  0.00000000E+00  0.00000000E+00
  0.00000000E+00  0.00000000E+00  0.00000000E+00
  0.00000000E+00  0.00000000E+00  0.00000000E+00
  0.00000000E+00  0.00000000E+00  0.00000000E+00
  0.00000000E+00  0.00000000E+00  0.00000000E+00
  0.00000000E+00  0.00000000E+00  0.00000000E+00
  0.00000000E+00  0.00000000E+00  0.00000000E+00
  0.00000000E+00  0.00000000E+00  0.00000000E+00
  0.00000000E+00  0.00000000E+00  0.00000000E+00
  0.00000000E+00  0.00000000E+00  0.00000000E+00
  0.00000000E+00  0.00000000E+00  0.00000000E+00
  0.00000000E+00  0.00000000E+00  0.00000000E+00
  0.00000000E+00  0.00000000E+00  0.00000000E+00
  0.00000000E+00  0.00000000E+00  0.00000000E+00
  0.00000000E+00  0.00000000E+00  0.00000000E+00
  0.00000000E+00  0.00000000E+00  0.00000000E+00
  0.00000000E+00  0.00000000E+00  0.00000000E+00
  0.00000000E+00  0.00000000E+00  0.00000000E+00
  0.00000000E+00  0.00000000E+00  0.00000000E+00
  0.00000000E+00  0.00000000E+00  0.00000000E+00
  0.00000000E+00  0.00000000E+00  0.00000000E+00
  0.00000000E+00  0.00000000E+00  0.00000000E+00
  0.00000000E+00  0.00000000E+00  0.00000000E+00
  0.00000000E+00  0.00000000E+00  0.00000000E+00
  0.00000000E+00  0.00000000E+00  0.00000000E+00
  0.00000000E+00  0.00000000E+00  0.00000000E+00
  0.00000000E+00  0.00000000E+00  0.00000000E+00
  0.00000000E+00  0.00000000E+00  0.00000000E+00
  0.00000000E+00  0.00000000E+00  0.00000000E+00
  0.00000000E+00  0.00000000E+00  0.00000000E+00
  0.00000000E+00  0.00000000E+00  0.00000000E+00
  0.00000000E+00  0.00000000E+00  0.00000000E+00
  0.00000000E+00  0.00000000E+00  0.00000000E+00
  0.00000000E+00  0.00000000E+00  0.00000000E+00
