Ru   N    O 
   1.00000000000000     
   8.1600000000000001   0.0000000000000000   0.0000000000000000
   4.0800000000000001   7.0667672948810196   0.0000000000000000
   0.0000000000000000   0.0000000000000000  23.5951999999999984
Ru   N    O 
36  1  3  
Selective dynamics
Direct
  0.8888888888888851  0.2222222222222214  0.0000000000000000 F F F
  0.2222222222222214  0.2222222222222214  0.0000000000000000 F F F
  0.5555555555555571  0.2222222222222214  0.0000000000000000 F F F
  0.8888888888888835  0.5555555555555572  0.0000000000000000 F F F
  0.2222222222222213  0.5555555555555572  0.0000000000000000 F F F
  0.5555555555555562  0.5555555555555572  0.0000000000000000 F F F
  0.8888888888888856  0.8888888888888857  0.0000000000000000 F F F
  0.2222222222222207  0.8888888888888857  0.0000000000000000 F F F
  0.5555555555555570  0.8888888888888857  0.0000000000000000 F F F
  0.0000000000000000  0.0000000000000000  0.0910693700413674 F F F
  0.3333333333333342  0.0000000000000000  0.0910693700413674 F F F
  0.6666666666666629  0.0000000000000000  0.0910693700413674 F F F
  0.9999999999999500  0.3333333333333357  0.0910693700413674 F F F
  0.3333333333333356  0.3333333333333357  0.0910693700413674 F F F
  0.6666666666665892  0.3333333333333357  0.0910693700413674 F F F
  0.9999999999999356  0.6666666666666646  0.0910693700413674 F F F
  0.3333333333332608  0.6666666666666646  0.0910693700413674 F F F
  0.6666666666666550  0.6666666666666646  0.0910693700413674 F F F
  0.8890818356575261  0.2227217426404664  0.1825331205628157 T T T
  0.2228141755530238  0.2239680831102648  0.1838963857450993 T T T
  0.5544378531746802  0.2229702216211238  0.1836501891507215 T T T
  0.8897558810987132  0.5563869616789807  0.1831840689942060 T T T
  0.2230343181445703  0.5549888270773592  0.1810746550637162 T T T
  0.5554775166213314  0.5553891367143556  0.1835939501341332 T T T
  0.8892600292582344  0.8882140974593606  0.1832396981553361 T T T
  0.2230670748124297  0.8879823140012350  0.1835515428492752 T T T
  0.5559981984437375  0.8889716433059447  0.1827898556757849 T T T
  0.9993796127982584  0.0051778856283054  0.2704071995385512 T T T
  0.3335236938996152  0.0001958572105775  0.2708558586233160 T T T
  0.6675687490921763  0.9966527113745354  0.2707643392316688 T T T
  0.0000084915122027  0.3298920856086763  0.2706385176635195 T T T
  0.3378448364936071  0.3251465750455056  0.2749407427866752 T T T
  0.6720522344924735  0.3310101746136025  0.2738585688445862 T T T
  0.9924352247905448  0.6717941669062794  0.2740861692454614 T T T
  0.3373593774812793  0.6745513210078519  0.2733947183437168 T T T
  0.6666776103276937  0.6703265818187540  0.2708574197099225 T T T
  0.5238566246723294  0.3338853326084408  0.3899629448131675 T T T
  0.4998554777062706  0.3914465934791826  0.4378379193294027 T T T
  0.6642822756605720  0.3527351854567269  0.3604304828779642 T T T
  0.2247393313413930  0.5607276960616101  0.3242435025390402 T T T
