Cu   Pd   Cu   N    O 
   1.00000000000000     
   7.8488852711706798   0.0000000000000000   0.0000000000000000
   0.0000000000000000   7.8488852711706798   0.0000000000000000
   0.0000000000000000   0.0000000000000000  22.3999999999999986
Cu   Pd   Cu   N    O 
31  1  4  1  3  
Selective dynamics
Direct
  0.1666666666666643  0.1666666666666643  0.0000000000000000 F F F
  0.5000000000000000  0.1666666666666643  0.0000000000000000 F F F
  0.8333333333333357  0.1666666666666643  0.0000000000000000 F F F
  0.1666666666666643  0.5000000000000000  0.0000000000000000 F F F
  0.5000000000000000  0.5000000000000000  0.0000000000000000 F F F
  0.8333333333333357  0.5000000000000000  0.0000000000000000 F F F
  0.1666666666666643  0.8333333333333357  0.0000000000000000 F F F
  0.5000000000000000  0.8333333333333357  0.0000000000000000 F F F
  0.8333333333333357  0.8333333333333357  0.0000000000000000 F F F
  0.0000000000000000  0.0000000000000000  0.0825892857142847 F F F
  0.3333333333333357  0.0000000000000000  0.0825892857142847 F F F
  0.6666666666666643  0.0000000000000000  0.0825892857142847 F F F
  0.0000000000000000  0.3333333333333357  0.0825892857142847 F F F
  0.3333333333333357  0.3333333333333357  0.0825892857142847 F F F
  0.6666666666666643  0.3333333333333357  0.0825892857142847 F F F
  0.0000000000000000  0.6666666666666643  0.0825892857142847 F F F
  0.3333333333333357  0.6666666666666643  0.0825892857142847 F F F
  0.6666666666666643  0.6666666666666643  0.0825892857142847 F F F
  0.1680771386719354  0.1664377576519452  0.1645030658810209 T T T
  0.5025659750165018  0.1710104245260221  0.1655288310558847 T T T
  0.8311791837182115  0.1689343404151303  0.1618957565703134 T T T
  0.1658603610276031  0.4937474852607938  0.1644993965963016 T T T
  0.5002189183017085  0.4974069031786156  0.1652195072852174 T T T
  0.8302479561994432  0.4964827511510774  0.1646956288043745 T T T
  0.1654034063154604  0.8334779844180212  0.1639632838057604 T T T
  0.5030471729996600  0.8368082676108491  0.1642486142577267 T T T
  0.8347512482517998  0.8349098889503405  0.1637679729152755 T T T
  0.0083603788668436  0.9897039502434036  0.2459589880650454 T T T
  0.3370860437425082  0.9934044279091832  0.2424800671129549 T T T
  0.6670738095671651  0.0003856010747141  0.2457773407474977 T T T
  0.9964099230842016  0.3308630505483050  0.2457096048687433 T T T
  0.3274358597711974  0.3310698093164809  0.2516343524264021 T T T
  0.6745444089883573  0.3507209989221456  0.2555736592911018 T T T
  0.0004929666455832  0.6609799425286940  0.2412204021150837 T T T
  0.3308046239299571  0.6713835416290547  0.2417076764758325 T T T
  0.6661697553919342  0.6731086260470317  0.2413225227073282 T T T
  0.5860556471571488  0.4061127391853649  0.3401021411439119 T T T
  0.6651013224808795  0.4419830582077117  0.3855596155456824 T T T
  0.8435625482685895  0.1504378885641160  0.2803775310894965 T T T
  0.4221038901505668  0.3774513073064413  0.3444469843621401 T T T
