Cu Ru Cu 
 1.0000000000000000
     7.8488852711706780    0.0000000000000000    0.0000000000000000
     0.0000000000000000    7.8488852711706780    0.0000000000000000
     0.0000000000000000    0.0000000000000000   22.3999999999999986
 Cu  Ru  Cu 
  31   1   4
Selective dynamics
Cartesian
  1.3081475451951130  1.3081475451951130  0.0000000000000000   F   F   F
  3.9244426355853390  1.3081475451951130  0.0000000000000000   F   F   F
  6.5407377259755650  1.3081475451951130  0.0000000000000000   F   F   F
  1.3081475451951130  3.9244426355853390  0.0000000000000000   F   F   F
  3.9244426355853390  3.9244426355853390  0.0000000000000000   F   F   F
  6.5407377259755650  3.9244426355853390  0.0000000000000000   F   F   F
  1.3081475451951130  6.5407377259755650  0.0000000000000000   F   F   F
  3.9244426355853390  6.5407377259755650  0.0000000000000000   F   F   F
  6.5407377259755650  6.5407377259755650  0.0000000000000000   F   F   F
  0.0000000000000000  0.0000000000000000  1.8500000000000001   F   F   F
  2.6162950903902260  0.0000000000000000  1.8500000000000001   F   F   F
  5.2325901807804520  0.0000000000000000  1.8500000000000001   F   F   F
  0.0000000000000000  2.6162950903902260  1.8500000000000001   F   F   F
  2.6162950903902260  2.6162950903902260  1.8500000000000001   F   F   F
  5.2325901807804520  2.6162950903902260  1.8500000000000001   F   F   F
  0.0000000000000000  5.2325901807804520  1.8500000000000001   F   F   F
  2.6162950903902260  5.2325901807804520  1.8500000000000001   F   F   F
  5.2325901807804520  5.2325901807804520  1.8500000000000001   F   F   F
  1.3081475451951130  1.3081475451951130  3.7000000000000002   T   T   T
  3.9244426355853390  1.3081475451951130  3.7000000000000002   T   T   T
  6.5407377259755650  1.3081475451951130  3.7000000000000002   T   T   T
  1.3081475451951130  3.9244426355853390  3.7000000000000002   T   T   T
  3.9244426355853390  3.9244426355853390  3.7000000000000002   T   T   T
  6.5407377259755650  3.9244426355853390  3.7000000000000002   T   T   T
  1.3081475451951130  6.5407377259755650  3.7000000000000002   T   T   T
  3.9244426355853390  6.5407377259755650  3.7000000000000002   T   T   T
  6.5407377259755650  6.5407377259755650  3.7000000000000002   T   T   T
  0.0000000000000000  0.0000000000000000  5.5500000000000007   T   T   T
  2.6162950903902260  0.0000000000000000  5.5500000000000007   T   T   T
  5.2325901807804520  0.0000000000000000  5.5500000000000007   T   T   T
  0.0000000000000000  2.6162950903902260  5.5500000000000007   T   T   T
  2.6162950903902260  2.6162950903902260  5.5500000000000007   T   T   T
  5.2325901807804520  2.6162950903902260  5.5500000000000007   T   T   T
  0.0000000000000000  5.2325901807804520  5.5500000000000007   T   T   T
  2.6162950903902260  5.2325901807804520  5.5500000000000007   T   T   T
  5.2325901807804520  5.2325901807804520  5.5500000000000007   T   T   T

