Rh   N    O 
   1.00000000000000     
   8.2095097295758208   0.0000000000000000   0.0000000000000000
   4.1047548647879104   7.1096439784281698   0.0000000000000000
   0.0000000000000000   0.0000000000000000  23.9373821670554001
Rh   N    O 
36  1  3  
Selective dynamics
Direct
  0.0000000000000000  0.0000000000000000  0.0000000000000000 F F F
  0.3333333333333357  0.0000000000000000  0.0000000000000000 F F F
  0.6666666666666643  0.0000000000000000  0.0000000000000000 F F F
  0.0000000000000000  0.3333333333333357  0.0000000000000000 F F F
  0.3333333333333357  0.3333333333333357  0.0000000000000000 F F F
  0.6666666666666643  0.3333333333333357  0.0000000000000000 F F F
  0.0000000000000000  0.6666666666666643  0.0000000000000000 F F F
  0.3333333333333357  0.6666666666666643  0.0000000000000000 F F F
  0.6666666666666643  0.6666666666666643  0.0000000000000000 F F F
  0.1111111111111143  0.1111111111111143  0.0933412653969725 F F F
  0.4444444444444429  0.1111111111111143  0.0933412653969725 F F F
  0.7777777777777786  0.1111111111111143  0.0933412653969725 F F F
  0.1111111111111143  0.4444444444444429  0.0933412653969725 F F F
  0.4444444444444429  0.4444444444444429  0.0933412653969725 F F F
  0.7777777777777786  0.4444444444444429  0.0933412653969725 F F F
  0.1111111111111143  0.7777777777777786  0.0933412653969725 F F F
  0.4444444444444429  0.7777777777777786  0.0933412653969725 F F F
  0.7777777777777786  0.7777777777777786  0.0933412653969725 F F F
  0.8858446767917953  0.2252559669606292  0.1852460383250131 T T T
  0.2243226128194607  0.2250592331397096  0.1855555828744881 T T T
  0.5554715961418761  0.2221058502709011  0.1841149293369021 T T T
  0.8888888334177218  0.5562882544398359  0.1833684497585844 T T T
  0.2227712045202936  0.5550072567529161  0.1845395639062327 T T T
  0.5554717978234448  0.5554264359431867  0.1838621917370329 T T T
  0.8885638520776444  0.8900260181931517  0.1842140557682152 T T T
  0.2210165258478262  0.8915779343116140  0.1839436112674897 T T T
  0.5550107106621485  0.8895116459012298  0.1827609981439799 T T T
  0.9980426442941150  0.0034765189825100  0.2748980845309207 T T T
  0.3287245381685873  0.9971651604812030  0.2776079213465433 T T T
  0.6722686252249945  0.9935382863887030  0.2775661458385493 T T T
  0.9935308377170790  0.3399290451735958  0.2754068812815055 T T T
  0.3302424437604554  0.3465860329088842  0.2884326162431350 T T T
  0.6681242567813950  0.3386116883219698  0.2784899257045175 T T T
  0.9968696826137010  0.6698850712256686  0.2750598500164846 T T T
  0.3281752716668313  0.6775753566906895  0.2739012123521836 T T T
  0.6708148316198237  0.6624725328330082  0.2747255198452663 T T T
  0.4027675505191228  0.4169966829099847  0.3636409485204950 T T T
  0.3129460751882643  0.4584152289212900  0.4070027445131241 T T T
  0.5785593440598547  0.3793212026799710  0.3641736619315647 T T T
  0.4529633789020769  0.0860429843122251  0.3288866692083056 T T T
