Rh  N  O                                
   1.00000000000000     
     8.2095097295758173    0.0000000000000000    0.0000000000000000
     0.0000000000000000    8.2095097295758173    0.0000000000000000
     0.0000000000000000    0.0000000000000000   22.7400000000000020
   Rh   N    O 
    36     1     3
Selective dynamics
Direct
  0.1666666666666643  0.1666666666666643  0.0000000000000000   F   F   F
  0.5000000000000000  0.1666666666666643  0.0000000000000000   F   F   F
  0.8333333333333357  0.1666666666666643  0.0000000000000000   F   F   F
  0.1666666666666643  0.5000000000000000  0.0000000000000000   F   F   F
  0.5000000000000000  0.5000000000000000  0.0000000000000000   F   F   F
  0.8333333333333357  0.5000000000000000  0.0000000000000000   F   F   F
  0.1666666666666643  0.8333333333333357  0.0000000000000000   F   F   F
  0.5000000000000000  0.8333333333333357  0.0000000000000000   F   F   F
  0.8333333333333357  0.8333333333333357  0.0000000000000000   F   F   F
  0.0000000000000000  0.0000000000000000  0.0850923482849595   F   F   F
  0.3333333333333357  0.0000000000000000  0.0850923482849595   F   F   F
  0.6666666666666643  0.0000000000000000  0.0850923482849595   F   F   F
  0.0000000000000000  0.3333333333333357  0.0850923482849595   F   F   F
  0.3333333333333357  0.3333333333333357  0.0850923482849595   F   F   F
  0.6666666666666643  0.3333333333333357  0.0850923482849595   F   F   F
  0.0000000000000000  0.6666666666666643  0.0850923482849595   F   F   F
  0.3333333333333357  0.6666666666666643  0.0850923482849595   F   F   F
  0.6666666666666643  0.6666666666666643  0.0850923482849595   F   F   F
  0.1689247002660258  0.1672065634812356  0.1694008534925058   T   T   T
  0.4980514358845947  0.1689438375372513  0.1707436385941674   T   T   T
  0.8343722280072903  0.1687994059316738  0.1695984055444862   T   T   T
  0.1696743395398781  0.4976964189624332  0.1696799237832756   T   T   T
  0.4985108566874534  0.4972683334624036  0.1706082882297065   T   T   T
  0.8345183559301278  0.4968985406873557  0.1696746562521829   T   T   T
  0.1670774952434680  0.8325675433350876  0.1686160990681077   T   T   T
  0.5006712158597846  0.8330015282002514  0.1683809311386221   T   T   T
  0.8328516487198243  0.8328856400211920  0.1675349298908757   T   T   T
  0.9988318405987602 -0.0060995411864537  0.2497010244757640   T   T   T
  0.3337248492537271  0.9946752262879822  0.2500754307216614   T   T   T
  0.6682745509027548  0.9961100333818319  0.2492123139796085   T   T   T
 -0.0069572777198702  0.3329570418488111  0.2535615844420936   T   T   T
  0.3401158362453091  0.3305163159595140  0.2687351938825306   T   T   T
  0.6730741719019582  0.3339492018643686  0.2526428495437378   T   T   T
  0.9988633578514108  0.6717918858657771  0.2497675909566677   T   T   T
  0.3344862426323709  0.6706848977461709  0.2502981535057245   T   T   T
  0.6684180803742286  0.6688904832290359  0.2494329155880507   T   T   T
  0.4612289975047809  0.3152714139275711  0.3464963131774655   T   T   T
  0.4028341645353696  0.3013143361001459  0.3955289658778162   T   T   T
  0.6223053661473854  0.3197607199588399  0.3416821832137443   T   T   T
  0.1398664249397825  0.3345307979236353  0.3146808861399321   T   T   T
 
  0.00000000E+00  0.00000000E+00  0.00000000E+00
  0.00000000E+00  0.00000000E+00  0.00000000E+00
  0.00000000E+00  0.00000000E+00  0.00000000E+00
  0.00000000E+00  0.00000000E+00  0.00000000E+00
  0.00000000E+00  0.00000000E+00  0.00000000E+00
  0.00000000E+00  0.00000000E+00  0.00000000E+00
  0.00000000E+00  0.00000000E+00  0.00000000E+00
  0.00000000E+00  0.00000000E+00  0.00000000E+00
  0.00000000E+00  0.00000000E+00  0.00000000E+00
  0.00000000E+00  0.00000000E+00  0.00000000E+00
  0.00000000E+00  0.00000000E+00  0.00000000E+00
  0.00000000E+00  0.00000000E+00  0.00000000E+00
  0.00000000E+00  0.00000000E+00  0.00000000E+00
  0.00000000E+00  0.00000000E+00  0.00000000E+00
  0.00000000E+00  0.00000000E+00  0.00000000E+00
  0.00000000E+00  0.00000000E+00  0.00000000E+00
  0.00000000E+00  0.00000000E+00  0.00000000E+00
  0.00000000E+00  0.00000000E+00  0.00000000E+00
  0.00000000E+00  0.00000000E+00  0.00000000E+00
  0.00000000E+00  0.00000000E+00  0.00000000E+00
  0.00000000E+00  0.00000000E+00  0.00000000E+00
  0.00000000E+00  0.00000000E+00  0.00000000E+00
  0.00000000E+00  0.00000000E+00  0.00000000E+00
  0.00000000E+00  0.00000000E+00  0.00000000E+00
  0.00000000E+00  0.00000000E+00  0.00000000E+00
  0.00000000E+00  0.00000000E+00  0.00000000E+00
  0.00000000E+00  0.00000000E+00  0.00000000E+00
  0.00000000E+00  0.00000000E+00  0.00000000E+00
  0.00000000E+00  0.00000000E+00  0.00000000E+00
  0.00000000E+00  0.00000000E+00  0.00000000E+00
  0.00000000E+00  0.00000000E+00  0.00000000E+00
  0.00000000E+00  0.00000000E+00  0.00000000E+00
  0.00000000E+00  0.00000000E+00  0.00000000E+00
  0.00000000E+00  0.00000000E+00  0.00000000E+00
  0.00000000E+00  0.00000000E+00  0.00000000E+00
  0.00000000E+00  0.00000000E+00  0.00000000E+00
  0.00000000E+00  0.00000000E+00  0.00000000E+00
  0.00000000E+00  0.00000000E+00  0.00000000E+00
  0.00000000E+00  0.00000000E+00  0.00000000E+00
  0.00000000E+00  0.00000000E+00  0.00000000E+00
