Rh  N  O 
 1.0000000000000000
     8.2095097295758173    0.0000000000000000    0.0000000000000000
     0.0000000000000000    8.2095097295758173    0.0000000000000000
     0.0000000000000000    0.0000000000000000   22.7400000000000020
 Rh  N   O  
  36   1   3
Selective dynamics
Cartesian
  1.3682516215959502  1.3682516215959502  0.0000000000000000   F   F   F
  4.1047548647879086  1.3682516215959502  0.0000000000000000   F   F   F
  6.8412581079798676  1.3682516215959502  0.0000000000000000   F   F   F
  1.3682516215959502  4.1047548647879086  0.0000000000000000   F   F   F
  4.1047548647879086  4.1047548647879086  0.0000000000000000   F   F   F
  6.8412581079798676  4.1047548647879086  0.0000000000000000   F   F   F
  1.3682516215959502  6.8412581079798676  0.0000000000000000   F   F   F
  4.1047548647879086  6.8412581079798676  0.0000000000000000   F   F   F
  6.8412581079798676  6.8412581079798676  0.0000000000000000   F   F   F
  0.0000000000000000  0.0000000000000000  1.9349999999999792   F   F   F
  2.7365032431919585  0.0000000000000000  1.9349999999999792   F   F   F
  5.4730064863838583  0.0000000000000000  1.9349999999999792   F   F   F
  0.0000000000000000  2.7365032431919585  1.9349999999999792   F   F   F
  2.7365032431919585  2.7365032431919585  1.9349999999999792   F   F   F
  5.4730064863838583  2.7365032431919585  1.9349999999999792   F   F   F
  0.0000000000000000  5.4730064863838583  1.9349999999999792   F   F   F
  2.7365032431919585  5.4730064863838583  1.9349999999999792   F   F   F
  5.4730064863838583  5.4730064863838583  1.9349999999999792   F   F   F
  1.4020932058198408  1.3836047508612004  3.8681455124738151   T   T   T
  4.1262107969312583  1.3472764951627152  3.8511093686446722   T   T   T
  6.8757474754427559  1.4100766728865137  3.8859203805727671   T   T   T
  1.3850054797979237  4.0897287688218578  3.7905240393947270   T   T   T
  4.1050586867644263  4.0911000170982108  3.8549194755273435   T   T   T
  6.8259567926118194  4.1050235843513958  3.8477279146013363   T   T   T
  1.3538824888213192  6.8481463365020252  3.8251512426932606   T   T   T
  4.0772257683319317  6.8002548901713569  3.8561070592264768   T   T   T
  6.8383588225925109  6.8462458844705507  3.8261688725488319   T   T   T
 -0.0006555325416246  0.0164863052790196  5.6842451327917374   T   T   T
  2.7376002127142360 -0.0804819618605055  5.6842184726677214   T   T   T
  5.4880578625642746 -0.0326157304597876  5.6674055941737418   T   T   T
  0.1540964236300925  2.8209071959961052  5.7876152050943581   T   T   T
  2.8908713290845354  2.5888363613210070  5.8817517200534883   T   T   T
  5.5700524806739935  2.7382542897515441  5.7772486810210477   T   T   T
 -0.0823296466178494  5.5617923494642572  5.7732493078529039   T   T   T
  2.6502886250034501  5.3608526301886279  5.7832100635868597   T   T   T
  5.4488625705611851  5.4985766703950603  5.6823874261513785   T   T   T
  3.6217008791353837  2.5483607483123105  7.7214198847899578   T   T   T
  2.9837750600727726  2.4800773819857191  8.7634154977162524   T   T   T
  4.9443147815760113  2.6180334393661644  7.7753213449364438   T   T   T
  1.4350252296090549  2.6675019300831408  7.2839715538224574   T   T   T

