Pd   N    O 
   1.00000000000000     
   8.4216417639317793   0.0000000000000000   0.0000000000000000
   0.0000000000000000   8.4216417639317793   0.0000000000000000
   0.0000000000000000   0.0000000000000000  22.9400000000000013
Pd   N    O 
36  1  3  
Selective dynamics
Direct
  0.1666666666666640  0.1666666666666640  0.0000000000000000 F F F
  0.5000000000000000  0.1666666666666640  0.0000000000000000 F F F
  0.8333333333333360  0.1666666666666640  0.0000000000000000 F F F
  0.1666666666666640  0.5000000000000000  0.0000000000000000 F F F
  0.5000000000000000  0.5000000000000000  0.0000000000000000 F F F
  0.8333333333333360  0.5000000000000000  0.0000000000000000 F F F
  0.1666666666666640  0.8333333333333360  0.0000000000000000 F F F
  0.5000000000000000  0.8333333333333360  0.0000000000000000 F F F
  0.8333333333333360  0.8333333333333360  0.0000000000000000 F F F
  0.0000000000000000  0.0000000000000000  0.0865300784655645 F F F
  0.3333333333333360  0.0000000000000000  0.0865300784655645 F F F
  0.6666666666666640  0.0000000000000000  0.0865300784655645 F F F
  0.0000000000000000  0.3333333333333360  0.0865300784655645 F F F
  0.3333333333333360  0.3333333333333360  0.0865300784655645 F F F
  0.6666666666666640  0.3333333333333360  0.0865300784655645 F F F
  0.0000000000000000  0.6666666666666640  0.0865300784655645 F F F
  0.3333333333333360  0.6666666666666640  0.0865300784655645 F F F
  0.6666666666666640  0.6666666666666640  0.0865300784655645 F F F
  0.1672695016573440  0.1671689749091950  0.1729276767875590 T T T
  0.5018689351243000  0.1681075246438510  0.1733757790077770 T T T
  0.8356686069346539  0.1685760139739830  0.1735897718214120 T T T
  0.1672694950747630  0.4994974096514400  0.1729275156503580 T T T
  0.5018688650985720  0.4985605031798030  0.1733758062890730 T T T
  0.8356684207646620  0.4980902378025720  0.1735898112640230 T T T
  0.1667955195142740  0.8333331956358090  0.1719551113582870 T T T
  0.5008363678863500  0.8333340548696030  0.1720437878766530 T T T
  0.8333119458095980  0.8333334566654360  0.1721104748032120 T T T
  0.0002303612623393  0.9970007348366610  0.2581086852290610 T T T
  0.3346740458044620  0.9968611625599310  0.2577159965534930 T T T
  0.6683519913948710  0.9981938766825140  0.2586232469764130 T T T
  0.0005299087907318  0.3333327022986340  0.2635779448043750 T T T
  0.3448643713244620  0.3333339076491340  0.2593381405308080 T T T
  0.6733350454416180  0.3333343715446590  0.2607785617469180 T T T
  0.0002305895378498  0.6696650432482020  0.2581085077488370 T T T
  0.3346739581456930  0.6698055592911840  0.2577161280950190 T T T
  0.6683509475760370  0.6684741309133810  0.2586232448617880 T T T
  0.3551187350812700  0.3333328739899600  0.3975324874811510 T T T
  0.3014845689441120  0.3333325671514230  0.4469425146473040 T T T
  0.4954722149037490  0.3333328084294960  0.3816742650454330 T T T
  0.1999232801886850  0.3333330658370030  0.3255664876562890 T T T
