Rh  N  O                                
   1.00000000000000     
     8.2095097295758173    0.0000000000000000    0.0000000000000000
     0.0000000000000000    8.2095097295758173    0.0000000000000000
     0.0000000000000000    0.0000000000000000   22.7400000000000020
   Rh   N    O 
    36     1     3
Selective dynamics
Direct
  0.1666666666666643  0.1666666666666643  0.0000000000000000   F   F   F
  0.5000000000000000  0.1666666666666643  0.0000000000000000   F   F   F
  0.8333333333333357  0.1666666666666643  0.0000000000000000   F   F   F
  0.1666666666666643  0.5000000000000000  0.0000000000000000   F   F   F
  0.5000000000000000  0.5000000000000000  0.0000000000000000   F   F   F
  0.8333333333333357  0.5000000000000000  0.0000000000000000   F   F   F
  0.1666666666666643  0.8333333333333357  0.0000000000000000   F   F   F
  0.5000000000000000  0.8333333333333357  0.0000000000000000   F   F   F
  0.8333333333333357  0.8333333333333357  0.0000000000000000   F   F   F
  0.0000000000000000  0.0000000000000000  0.0850923482849595   F   F   F
  0.3333333333333357  0.0000000000000000  0.0850923482849595   F   F   F
  0.6666666666666643  0.0000000000000000  0.0850923482849595   F   F   F
  0.0000000000000000  0.3333333333333357  0.0850923482849595   F   F   F
  0.3333333333333357  0.3333333333333357  0.0850923482849595   F   F   F
  0.6666666666666643  0.3333333333333357  0.0850923482849595   F   F   F
  0.0000000000000000  0.6666666666666643  0.0850923482849595   F   F   F
  0.3333333333333357  0.6666666666666643  0.0850923482849595   F   F   F
  0.6666666666666643  0.6666666666666643  0.0850923482849595   F   F   F
  0.1689050001165916  0.1673163624151594  0.1693946380384699   T   T   T
  0.4979487114280450  0.1688075570591171  0.1706668894115074   T   T   T
  0.8343516802441076  0.1687221505638898  0.1696332847643897   T   T   T
  0.1697313849329447  0.4978119264023502  0.1697081194986985   T   T   T
  0.4982900038592468  0.4974524939825714  0.1705649252977330   T   T   T
  0.8345465334573470  0.4970136521172712  0.1697127977995980   T   T   T
  0.1671365951457486  0.8326601015228243  0.1685192886607487   T   T   T
  0.5006888105176419  0.8329884080255731  0.1683286534759922   T   T   T
  0.8328706893501461  0.8328965666266741  0.1673874584618799   T   T   T
  0.9987502602676394  0.9942856669372301  0.2497463383131916   T   T   T
  0.3337972764591252  0.9946676591736549  0.2501404935116773   T   T   T
  0.6683717439545371  0.9961128290011617  0.2493776943392135   T   T   T
  0.9930981368565073  0.3329602170124440  0.2534231717228277   T   T   T
  0.3409381420662830  0.3302957853611376  0.2688275324069175   T   T   T
  0.6733368967853826  0.3339814959876852  0.2526153357108921   T   T   T
  0.9988989719057239  0.6715315812737118  0.2497998656417121   T   T   T
  0.3345302330965920  0.6707301617382040  0.2503511195316349   T   T   T
  0.6683631745648613  0.6689787167300318  0.2494981757504577   T   T   T
  0.4613863445241095  0.3155369922776507  0.3463332168334452   T   T   T
  0.4031247789475681  0.3015399515639512  0.3957028452990609   T   T   T
  0.6220343164228729  0.3196709670264267  0.3419545636077072   T   T   T
  0.1395492374817667  0.3349657009895681  0.3148107687056809   T   T   T
 
  0.00000000E+00  0.00000000E+00  0.00000000E+00
  0.00000000E+00  0.00000000E+00  0.00000000E+00
  0.00000000E+00  0.00000000E+00  0.00000000E+00
  0.00000000E+00  0.00000000E+00  0.00000000E+00
  0.00000000E+00  0.00000000E+00  0.00000000E+00
  0.00000000E+00  0.00000000E+00  0.00000000E+00
  0.00000000E+00  0.00000000E+00  0.00000000E+00
  0.00000000E+00  0.00000000E+00  0.00000000E+00
  0.00000000E+00  0.00000000E+00  0.00000000E+00
  0.00000000E+00  0.00000000E+00  0.00000000E+00
  0.00000000E+00  0.00000000E+00  0.00000000E+00
  0.00000000E+00  0.00000000E+00  0.00000000E+00
  0.00000000E+00  0.00000000E+00  0.00000000E+00
  0.00000000E+00  0.00000000E+00  0.00000000E+00
  0.00000000E+00  0.00000000E+00  0.00000000E+00
  0.00000000E+00  0.00000000E+00  0.00000000E+00
  0.00000000E+00  0.00000000E+00  0.00000000E+00
  0.00000000E+00  0.00000000E+00  0.00000000E+00
  0.00000000E+00  0.00000000E+00  0.00000000E+00
  0.00000000E+00  0.00000000E+00  0.00000000E+00
  0.00000000E+00  0.00000000E+00  0.00000000E+00
  0.00000000E+00  0.00000000E+00  0.00000000E+00
  0.00000000E+00  0.00000000E+00  0.00000000E+00
  0.00000000E+00  0.00000000E+00  0.00000000E+00
  0.00000000E+00  0.00000000E+00  0.00000000E+00
  0.00000000E+00  0.00000000E+00  0.00000000E+00
  0.00000000E+00  0.00000000E+00  0.00000000E+00
  0.00000000E+00  0.00000000E+00  0.00000000E+00
  0.00000000E+00  0.00000000E+00  0.00000000E+00
  0.00000000E+00  0.00000000E+00  0.00000000E+00
  0.00000000E+00  0.00000000E+00  0.00000000E+00
  0.00000000E+00  0.00000000E+00  0.00000000E+00
  0.00000000E+00  0.00000000E+00  0.00000000E+00
  0.00000000E+00  0.00000000E+00  0.00000000E+00
  0.00000000E+00  0.00000000E+00  0.00000000E+00
  0.00000000E+00  0.00000000E+00  0.00000000E+00
  0.00000000E+00  0.00000000E+00  0.00000000E+00
  0.00000000E+00  0.00000000E+00  0.00000000E+00
  0.00000000E+00  0.00000000E+00  0.00000000E+00
  0.00000000E+00  0.00000000E+00  0.00000000E+00
