Ni  N  O 
 1.0000000000000000
     7.5306872196367305    0.0000000000000000    0.0000000000000000
     0.0000000000000000    7.5306872196367305    0.0000000000000000
     0.0000000000000000    0.0000000000000000   22.1000000000000014
 Ni  N   O  
  36   1   3
Selective dynamics
Cartesian
  1.2551145366061216  1.2551145366061216  0.0000000000000000   F   F   F
  3.7653436098183648  1.2551145366061216  0.0000000000000000   F   F   F
  6.2755726830306084  1.2551145366061216  0.0000000000000000   F   F   F
  1.2551145366061216  3.7653436098183648  0.0000000000000000   F   F   F
  3.7653436098183648  3.7653436098183648  0.0000000000000000   F   F   F
  6.2755726830306084  3.7653436098183648  0.0000000000000000   F   F   F
  1.2551145366061216  6.2755726830306084  0.0000000000000000   F   F   F
  3.7653436098183648  6.2755726830306084  0.0000000000000000   F   F   F
  6.2755726830306084  6.2755726830306084  0.0000000000000000   F   F   F
  0.0000000000000000  0.0000000000000000  1.7749999999999999   F   F   F
  2.5102290732122432  0.0000000000000000  1.7749999999999999   F   F   F
  5.0204581464244864  0.0000000000000000  1.7749999999999999   F   F   F
  0.0000000000000000  2.5102290732122432  1.7749999999999999   F   F   F
  2.5102290732122432  2.5102290732122432  1.7749999999999999   F   F   F
  5.0204581464244864  2.5102290732122432  1.7749999999999999   F   F   F
  0.0000000000000000  5.0204581464244864  1.7749999999999999   F   F   F
  2.5102290732122432  5.0204581464244864  1.7749999999999999   F   F   F
  5.0204581464244864  5.0204581464244864  1.7749999999999999   F   F   F
  1.2551145366061216  1.2551145366061216  3.5499999999999998   T   T   T
  3.7653436098183648  1.2551145366061216  3.5499999999999998   T   T   T
  6.2755726830306084  1.2551145366061216  3.5499999999999998   T   T   T
  1.2551145366061216  3.7653436098183648  3.5499999999999998   T   T   T
  3.7653436098183648  3.7653436098183648  3.5499999999999998   T   T   T
  6.2755726830306084  3.7653436098183648  3.5499999999999998   T   T   T
  1.2551145366061216  6.2755726830306084  3.5499999999999998   T   T   T
  3.7653436098183648  6.2755726830306084  3.5499999999999998   T   T   T
  6.2755726830306084  6.2755726830306084  3.5499999999999998   T   T   T
  0.0000000000000000  0.0000000000000000  5.3249999999999993   T   T   T
  2.5102290732122432  0.0000000000000000  5.3249999999999993   T   T   T
  5.0204581464244864  0.0000000000000000  5.3249999999999993   T   T   T
  0.0000000000000000  2.5102290732122432  5.3249999999999993   T   T   T
  2.5102290732122432  2.5102290732122432  5.3249999999999993   T   T   T
  5.0204581464244864  2.5102290732122432  5.3249999999999993   T   T   T
  0.0000000000000000  5.0204581464244864  5.3249999999999993   T   T   T
  2.5102290732122432  5.0204581464244864  5.3249999999999993   T   T   T
  5.0204581464244864  5.0204581464244864  5.3249999999999993   T   T   T
  3.8000000000000043  2.5000000000000000  7.8249999999999993   T   T   T
  3.8000000000000043  2.5000000000000000  9.0737249999999996   T   T   T
  4.8821420000000053  2.5000000000000000  7.1989609999999988   T   T   T
  2.7178579999999992  2.5000000000000000  7.1989609999999988   T   T   T

