Cu    N    O 
   1.00000000000000     
   7.8488852711706798   0.0000000000000000   0.0000000000000000
   0.0000000000000000   7.8488852711706798   0.0000000000000000
   0.0000000000000000   0.0000000000000000  22.3999999999999986
Cu    N    O 
36  1  3  
Selective dynamics
Direct
  0.1666666666666643  0.1666666666666643  0.0000000000000000 F F F
  0.5000000000000000  0.1666666666666643  0.0000000000000000 F F F
  0.8333333333333357  0.1666666666666643  0.0000000000000000 F F F
  0.1666666666666643  0.5000000000000000  0.0000000000000000 F F F
  0.5000000000000000  0.5000000000000000  0.0000000000000000 F F F
  0.8333333333333357  0.5000000000000000  0.0000000000000000 F F F
  0.1666666666666643  0.8333333333333357  0.0000000000000000 F F F
  0.5000000000000000  0.8333333333333357  0.0000000000000000 F F F
  0.8333333333333357  0.8333333333333357  0.0000000000000000 F F F
  0.0000000000000000  0.0000000000000000  0.0825892857142847 F F F
  0.3333333333333357  0.0000000000000000  0.0825892857142847 F F F
  0.6666666666666643  0.0000000000000000  0.0825892857142847 F F F
  0.0000000000000000  0.3333333333333357  0.0825892857142847 F F F
  0.3333333333333357  0.3333333333333357  0.0825892857142847 F F F
  0.6666666666666643  0.3333333333333357  0.0825892857142847 F F F
  0.0000000000000000  0.6666666666666643  0.0825892857142847 F F F
  0.3333333333333357  0.6666666666666643  0.0825892857142847 F F F
  0.6666666666666643  0.6666666666666643  0.0825892857142847 F F F
  0.1704909531571522  0.1710108436513946  0.1647231258056629 T T T
  0.5006372240217338  0.1698066112449306  0.1656810455694197 T T T
  0.8335451459902410  0.1730639512683375  0.1651623331458965 T T T
  0.1688869265118182  0.4984041601351838  0.1616880821724758 T T T
  0.4979614514635323  0.4945673395082534  0.1659341521414881 T T T
  0.8311170486575589  0.4994663744758197  0.1647955061804831 T T T
  0.1656584870011196  0.8323551750483351  0.1635446428317970 T T T
  0.4968557626761124  0.8300702192381090  0.1641307886794655 T T T
  0.8350662640802121  0.8332408470709529  0.1636551288779352 T T T
  0.0006347582922837  0.0053582688881911  0.2408007348516405 T T T
  0.3343866353869946  0.9946591974268760  0.2410408870109706 T T T
  0.6702004885798623  0.9949832715661900  0.2414359743553648 T T T
  0.0016473153508443  0.3358893536840477  0.2449998375794925 T T T
  0.3299409325104367  0.3192125058669467  0.2543498007516868 T T T
  0.6765563781609961  0.3349563513632935  0.2478046432056898 T T T
  0.9911224095043960  0.6771971883929384  0.2456854894472441 T T T
  0.3325918415031371  0.6674596639086829  0.2454469179776860 T T T
  0.6633406747950774  0.6707544114234182  0.2410733609558762 T T T
  0.4430129168046489  0.2801827032480571  0.3363270373844806 T T T
  0.3775737859622307  0.2533356183119735  0.3849308888113782 T T T
  0.6100298717986969  0.3013735951846440  0.3345998486823586 T T T
  0.1557538096790327  0.5143916429595097  0.2793158454049656 T T T
