Pd   N    O 
   1.00000000000000     
   8.4216417639317793   0.0000000000000000   0.0000000000000000
   0.0000000000000000   8.4216417639317793   0.0000000000000000
   0.0000000000000000   0.0000000000000000  22.9400000000000013
Pd   N    O 
36  1  3  
Selective dynamics
Direct
  0.1666666666666643  0.1666666666666643  0.0000000000000000 F F F
  0.5000000000000000  0.1666666666666643  0.0000000000000000 F F F
  0.8333333333333356  0.1666666666666643  0.0000000000000000 F F F
  0.1666666666666643  0.5000000000000000  0.0000000000000000 F F F
  0.5000000000000000  0.5000000000000000  0.0000000000000000 F F F
  0.8333333333333356  0.5000000000000000  0.0000000000000000 F F F
  0.1666666666666643  0.8333333333333356  0.0000000000000000 F F F
  0.5000000000000000  0.8333333333333356  0.0000000000000000 F F F
  0.8333333333333356  0.8333333333333356  0.0000000000000000 F F F
  0.0000000000000000  0.0000000000000000  0.0865300784655645 F F F
  0.3333333333333357  0.0000000000000000  0.0865300784655645 F F F
  0.6666666666666643  0.0000000000000000  0.0865300784655645 F F F
  0.0000000000000000  0.3333333333333357  0.0865300784655645 F F F
  0.3333333333333357  0.3333333333333357  0.0865300784655645 F F F
  0.6666666666666643  0.3333333333333357  0.0865300784655645 F F F
  0.0000000000000000  0.6666666666666643  0.0865300784655645 F F F
  0.3333333333333357  0.6666666666666643  0.0865300784655645 F F F
  0.6666666666666643  0.6666666666666643  0.0865300784655645 F F F
  0.1672274966516352  0.1670494050268955  0.1728147255636081 T T T
  0.5025608933378934  0.1678677309733257  0.1733158673513819 T T T
  0.8363847379378249  0.1689356588828035  0.1738925283988182 T T T
  0.1672274943300426  0.4996170739918093  0.1728147058065577 T T T
  0.5025609086544296  0.4988004019115612  0.1733159080572556 T T T
  0.8363845726695882  0.4977306979131140  0.1738926225596667 T T T
  0.1668494094558540  0.8333331481599576  0.1719410125089514 T T T
  0.5009237430736343  0.8333340016954629  0.1720337033920183 T T T
  0.8333289365765759  0.8333333592517659  0.1721038355317543 T T T
  0.0003752005328260  0.9965952201616652  0.2581121570177756 T T T
  0.3348963682270205  0.9966028673411332  0.2577306334823066 T T T
  0.6684123000173745  0.9981063304440744  0.2587192848958739 T T T
  0.0015442717660010  0.3333326143609330  0.2651164319482455 T T T
  0.3458113409286071  0.3333337463521162  0.2584313704803536 T T T
  0.6739449563750062  0.3333344876995313  0.2608569408745762 T T T
  0.0003750645234012  0.6700706597822506  0.2581119480490873 T T T
  0.3348963927385211  0.6700638725770722  0.2577309150233281 T T T
  0.6684113480651617  0.6685618204838111  0.2587193337128255 T T T
  0.3566182421713258  0.3333329391800446  0.4000775662123681 T T T
  0.3037306278852308  0.3333323307102069  0.4494211266784121 T T T
  0.4955341204364658  0.3333333396657452  0.3832089186033063 T T T
  0.1856493809753489  0.3333328702510970  0.3189340496606549 T T T
