 N  O                                   
   1.00000000000000     
    17.8488852711706798    0.0000000000000000    0.0000000000000000
     0.0000000000000000   17.8488852711706798    0.0000000000000000
     0.0000000000000000    0.0000000000000000   22.3999999999999986
   N    O 
     1     2
Direct
  0.2358832788708156  0.2088954168887582  0.3663186546657116
  0.2288106909370455  0.2385447931919700  0.4145482468498756
  0.2887578542406786  0.1699573694042087  0.3478346159645653
 
  0.00000000E+00  0.00000000E+00  0.00000000E+00
  0.00000000E+00  0.00000000E+00  0.00000000E+00
  0.00000000E+00  0.00000000E+00  0.00000000E+00
