Rh  N  O                                
   1.00000000000000     
     8.2095097295758173    0.0000000000000000    0.0000000000000000
     4.1047548647879086    7.1096439784281742    0.0000000000000000
     0.0000000000000000    0.0000000000000000   23.9373821670554108
   Rh   N    O 
    36     1     3
Selective dynamics
Direct
  0.0000000000000000  0.0000000000000000  0.0000000000000000   F   F   F
  0.3333333333333357  0.0000000000000000  0.0000000000000000   F   F   F
  0.6666666666666643  0.0000000000000000  0.0000000000000000   F   F   F
  0.0000000000000000  0.3333333333333357  0.0000000000000000   F   F   F
  0.3333333333333357  0.3333333333333357  0.0000000000000000   F   F   F
  0.6666666666666643  0.3333333333333357  0.0000000000000000   F   F   F
  0.0000000000000000  0.6666666666666643  0.0000000000000000   F   F   F
  0.3333333333333357  0.6666666666666643  0.0000000000000000   F   F   F
  0.6666666666666643  0.6666666666666643  0.0000000000000000   F   F   F
  0.1111111111111143  0.1111111111111143  0.0933412653969725   F   F   F
  0.4444444444444429  0.1111111111111143  0.0933412653969725   F   F   F
  0.7777777777777786  0.1111111111111143  0.0933412653969725   F   F   F
  0.1111111111111143  0.4444444444444429  0.0933412653969725   F   F   F
  0.4444444444444429  0.4444444444444429  0.0933412653969725   F   F   F
  0.7777777777777786  0.4444444444444429  0.0933412653969725   F   F   F
  0.1111111111111143  0.7777777777777786  0.0933412653969725   F   F   F
  0.4444444444444429  0.7777777777777786  0.0933412653969725   F   F   F
  0.7777777777777786  0.7777777777777786  0.0933412653969725   F   F   F
  0.8863066132623226  0.2241658665044413  0.1844225580138054   T   T   T
  0.2233495492652215  0.2236923276745605  0.1849532577196671   T   T   T
  0.5542533379049048  0.2219780191741586  0.1840196401602613   T   T   T
  0.8901729394042698  0.5553162258807411  0.1840756635547690   T   T   T
  0.2237721642430719  0.5525023284328238  0.1836365744909580   T   T   T
  0.5547622684158375  0.5537039579882421  0.1851301410415283   T   T   T
  0.8898983455924802  0.8883452138462893  0.1834938460342390   T   T   T
  0.2220537033778114  0.8894815889161861  0.1834454663693580   T   T   T
  0.5557057915006409  0.8878535157650072  0.1829236864748115   T   T   T
  0.9998833470877643  0.0058513279902532  0.2740347261469576   T   T   T
  0.3346861749895535  0.0003515322891837  0.2750772942650201   T   T   T
  0.6682775470071530  0.9927881507248096  0.2739922282413016   T   T   T
  0.9988152272212878  0.3311499111826152  0.2750222253417898   T   T   T
  0.3430037178400443  0.3261004545252147  0.2888877942681816   T   T   T
  0.6730495506485380  0.3291817995111074  0.2781379630286561   T   T   T
  0.9899584652135264  0.6718311356332393  0.2773361832393577   T   T   T
  0.3328042142703868  0.6758895445404655  0.2773505463694618   T   T   T
  0.6658980549132626  0.6675445123851723  0.2754967495612688   T   T   T
  0.4845671351639363  0.2561554516809580  0.3636860629977395   T   T   T
  0.4362812664153892  0.2151289927560888  0.4073912168967583   T   T   T
  0.6237405321874824  0.2921362090101351  0.3644432172364648   T   T   T
  0.2003841362708404  0.5914199232266329  0.3287355330874587   T   T   T
 
  0.00000000E+00  0.00000000E+00  0.00000000E+00
  0.00000000E+00  0.00000000E+00  0.00000000E+00
  0.00000000E+00  0.00000000E+00  0.00000000E+00
  0.00000000E+00  0.00000000E+00  0.00000000E+00
  0.00000000E+00  0.00000000E+00  0.00000000E+00
  0.00000000E+00  0.00000000E+00  0.00000000E+00
  0.00000000E+00  0.00000000E+00  0.00000000E+00
  0.00000000E+00  0.00000000E+00  0.00000000E+00
  0.00000000E+00  0.00000000E+00  0.00000000E+00
  0.00000000E+00  0.00000000E+00  0.00000000E+00
  0.00000000E+00  0.00000000E+00  0.00000000E+00
  0.00000000E+00  0.00000000E+00  0.00000000E+00
  0.00000000E+00  0.00000000E+00  0.00000000E+00
  0.00000000E+00  0.00000000E+00  0.00000000E+00
  0.00000000E+00  0.00000000E+00  0.00000000E+00
  0.00000000E+00  0.00000000E+00  0.00000000E+00
  0.00000000E+00  0.00000000E+00  0.00000000E+00
  0.00000000E+00  0.00000000E+00  0.00000000E+00
  0.00000000E+00  0.00000000E+00  0.00000000E+00
  0.00000000E+00  0.00000000E+00  0.00000000E+00
  0.00000000E+00  0.00000000E+00  0.00000000E+00
  0.00000000E+00  0.00000000E+00  0.00000000E+00
  0.00000000E+00  0.00000000E+00  0.00000000E+00
  0.00000000E+00  0.00000000E+00  0.00000000E+00
  0.00000000E+00  0.00000000E+00  0.00000000E+00
  0.00000000E+00  0.00000000E+00  0.00000000E+00
  0.00000000E+00  0.00000000E+00  0.00000000E+00
  0.00000000E+00  0.00000000E+00  0.00000000E+00
  0.00000000E+00  0.00000000E+00  0.00000000E+00
  0.00000000E+00  0.00000000E+00  0.00000000E+00
  0.00000000E+00  0.00000000E+00  0.00000000E+00
  0.00000000E+00  0.00000000E+00  0.00000000E+00
  0.00000000E+00  0.00000000E+00  0.00000000E+00
  0.00000000E+00  0.00000000E+00  0.00000000E+00
  0.00000000E+00  0.00000000E+00  0.00000000E+00
  0.00000000E+00  0.00000000E+00  0.00000000E+00
  0.00000000E+00  0.00000000E+00  0.00000000E+00
  0.00000000E+00  0.00000000E+00  0.00000000E+00
  0.00000000E+00  0.00000000E+00  0.00000000E+00
  0.00000000E+00  0.00000000E+00  0.00000000E+00
