Ni  N  O                                
   1.00000000000000     
     7.5306872196367305    0.0000000000000000    0.0000000000000000
     3.7653436098183652    6.5217664401602118    0.0000000000000000
     0.0000000000000000    0.0000000000000000   23.1983738224926874
   Ni   N    O 
    36     1     3
Selective dynamics
Direct
  0.0000000000000000  0.0000000000000000  0.0000000000000000   F   F   F
  0.3333333333333357  0.0000000000000000  0.0000000000000000   F   F   F
  0.6666666666666643  0.0000000000000000  0.0000000000000000   F   F   F
  0.0000000000000000  0.3333333333333357  0.0000000000000000   F   F   F
  0.3333333333333357  0.3333333333333357  0.0000000000000000   F   F   F
  0.6666666666666643  0.3333333333333357  0.0000000000000000   F   F   F
  0.0000000000000000  0.6666666666666643  0.0000000000000000   F   F   F
  0.3333333333333357  0.6666666666666643  0.0000000000000000   F   F   F
  0.6666666666666643  0.6666666666666643  0.0000000000000000   F   F   F
  0.1111111111111143  0.1111111111111143  0.0883507383451132   F   F   F
  0.4444444444444429  0.1111111111111143  0.0883507383451132   F   F   F
  0.7777777777777786  0.1111111111111143  0.0883507383451132   F   F   F
  0.1111111111111143  0.4444444444444429  0.0883507383451132   F   F   F
  0.4444444444444429  0.4444444444444429  0.0883507383451132   F   F   F
  0.7777777777777786  0.4444444444444429  0.0883507383451132   F   F   F
  0.1111111111111143  0.7777777777777786  0.0883507383451132   F   F   F
  0.4444444444444429  0.7777777777777786  0.0883507383451132   F   F   F
  0.7777777777777786  0.7777777777777786  0.0883507383451132   F   F   F
  0.8866155017528704  0.2241596903067643  0.1778384236192110   T   T   T
  0.2238012881905625  0.2242272991364569  0.1777453942465548   T   T   T
  0.5554321879515759  0.2238699598048568  0.1781669049130843   T   T   T
  0.8893128711955790  0.5559604954204631  0.1763466409778559   T   T   T
  0.2240697864443912  0.5534804769595867  0.1774268775981371   T   T   T
  0.5570275205046805  0.5536285822060626  0.1774015225317834   T   T   T
  0.8895710109306486  0.8892728076132727  0.1762127289455807   T   T   T
  0.2223805356531157  0.8897541141588934  0.1761660673953445   T   T   T
  0.5556102973604654  0.8894214967517515  0.1762229686298902   T   T   T
  0.0020893048496353  0.9995829525002735  0.2638800750419685   T   T   T
  0.3340396756413866  0.9994861370047959  0.2638880328444049   T   T   T
  0.6704374234689160  0.9951858001974945  0.2630964094838734   T   T   T
  0.0007063349698517  0.3350074552939113  0.2636012163555484   T   T   T
  0.3347693019852296  0.3342168475481982  0.2700194843567295   T   T   T
  0.6675788866024154  0.3346613637846033  0.2702234519451374   T   T   T
  0.9995957983050616  0.6686276006570430  0.2638497577420783   T   T   T
  0.3314105395244001  0.6733276243993405  0.2630352051328655   T   T   T
  0.6680080584019820  0.6689968968847503  0.2637480889117969   T   T   T
  0.4988106638999900  0.3388807134778140  0.3841248369154837   T   T   T
  0.4958586041383563  0.3431850295436542  0.4373593100413226   T   T   T
  0.6481388176536753  0.3405311770238288  0.3562279881749721   T   T   T
  0.3519381413405465  0.3333186876824039  0.3558629261790852   T   T   T
 
  0.00000000E+00  0.00000000E+00  0.00000000E+00
  0.00000000E+00  0.00000000E+00  0.00000000E+00
  0.00000000E+00  0.00000000E+00  0.00000000E+00
  0.00000000E+00  0.00000000E+00  0.00000000E+00
  0.00000000E+00  0.00000000E+00  0.00000000E+00
  0.00000000E+00  0.00000000E+00  0.00000000E+00
  0.00000000E+00  0.00000000E+00  0.00000000E+00
  0.00000000E+00  0.00000000E+00  0.00000000E+00
  0.00000000E+00  0.00000000E+00  0.00000000E+00
  0.00000000E+00  0.00000000E+00  0.00000000E+00
  0.00000000E+00  0.00000000E+00  0.00000000E+00
  0.00000000E+00  0.00000000E+00  0.00000000E+00
  0.00000000E+00  0.00000000E+00  0.00000000E+00
  0.00000000E+00  0.00000000E+00  0.00000000E+00
  0.00000000E+00  0.00000000E+00  0.00000000E+00
  0.00000000E+00  0.00000000E+00  0.00000000E+00
  0.00000000E+00  0.00000000E+00  0.00000000E+00
  0.00000000E+00  0.00000000E+00  0.00000000E+00
  0.00000000E+00  0.00000000E+00  0.00000000E+00
  0.00000000E+00  0.00000000E+00  0.00000000E+00
  0.00000000E+00  0.00000000E+00  0.00000000E+00
  0.00000000E+00  0.00000000E+00  0.00000000E+00
  0.00000000E+00  0.00000000E+00  0.00000000E+00
  0.00000000E+00  0.00000000E+00  0.00000000E+00
  0.00000000E+00  0.00000000E+00  0.00000000E+00
  0.00000000E+00  0.00000000E+00  0.00000000E+00
  0.00000000E+00  0.00000000E+00  0.00000000E+00
  0.00000000E+00  0.00000000E+00  0.00000000E+00
  0.00000000E+00  0.00000000E+00  0.00000000E+00
  0.00000000E+00  0.00000000E+00  0.00000000E+00
  0.00000000E+00  0.00000000E+00  0.00000000E+00
  0.00000000E+00  0.00000000E+00  0.00000000E+00
  0.00000000E+00  0.00000000E+00  0.00000000E+00
  0.00000000E+00  0.00000000E+00  0.00000000E+00
  0.00000000E+00  0.00000000E+00  0.00000000E+00
  0.00000000E+00  0.00000000E+00  0.00000000E+00
  0.00000000E+00  0.00000000E+00  0.00000000E+00
  0.00000000E+00  0.00000000E+00  0.00000000E+00
  0.00000000E+00  0.00000000E+00  0.00000000E+00
  0.00000000E+00  0.00000000E+00  0.00000000E+00
