Cu  N  O 
 1.0000000000000000
     7.8488619999999996    0.0000000000000000    0.0000000000000000
     3.9244420000000000    6.7973340000000002    0.0000000000000000
     0.0000000000000000    0.0000000000000000   23.5447869999999995
 Cu  N   O  
  36   1   3
Cartesian
  0.0000000000000000  0.0000000000000000  0.0000000000000000
  2.6162950000000000  0.0000000000000000  0.0000000000000000
  5.2325900000000001  0.0000000000000000  0.0000000000000000
  1.3081480000000001  2.2657780000000001  0.0000000000000000
  3.9244430000000001  2.2657780000000001  0.0000000000000000
  6.5407380000000002  2.2657780000000001  0.0000000000000000
 10.4651800000000001  4.5315560000000001  0.0000000000000000
  5.2325900000000001  4.5315560000000001  0.0000000000000000
  7.8488850000000001  4.5315560000000001  0.0000000000000000
  1.3081480000000001  0.7552590000000000  2.1361960000000000
  3.9244430000000001  0.7552590000000000  2.1361960000000000
  6.5407380000000002  0.7552590000000000  2.1361960000000000
  2.6162950000000000  3.0210370000000002  2.1361960000000000
  5.2325900000000001  3.0210370000000002  2.1361960000000000
  7.8488850000000001  3.0210370000000002  2.1361960000000000
  3.9244430000000001  5.2868149999999998  2.1361960000000000
  6.5407380000000002  5.2868149999999998  2.1361960000000000
  9.1570330000000002  5.2868149999999998  2.1361960000000000
  7.8480070000000000  1.5053960000000000  4.2065979999999996
  2.6277439999999999  1.5137460000000000  4.2427229999999998
  5.2183619999999999  1.5126020000000000  4.2396289999999999
  9.1681179999999998  3.7800140000000000  4.2471969999999999
  3.9191470000000002  3.7743180000000001  4.2575349999999998
  6.5279809999999996  3.7792659999999998  4.2402680000000004
 10.4618400000000005  6.0209190000000001  4.2465970000000004
  5.2320799999999998  6.0221299999999998  4.2427020000000004
  7.8468359999999997  6.0371819999999996  4.2188390000000000
 -0.0020100000000000  0.0260590000000000  6.3012319999999997
  6.5440620000000003  6.7884880000000001  6.3153170000000003
  9.1462939999999993  6.7881590000000003  6.3136979999999996
  1.2764979999999999  2.2406039999999998  6.3025430000000000
  3.9253510000000000  2.2053780000000001  6.3879859999999997
  6.5712080000000004  2.2390859999999999  6.2950379999999999
 10.4065130000000003  4.5571380000000001  6.4181150000000002
  5.2802319999999998  4.5507320000000000  6.3894359999999999
  7.8453080000000002  4.5340610000000003  6.3152049999999997
  4.1082630000000000  3.6738360000000001  9.4980480000000007
  3.1999800000000000  4.1736319999999996 10.1149900000000006
  5.1146760000000002  3.1188799999999999  9.8644060000000007
  3.9304090000000000  3.7693759999999998  7.6750619999999996
