Ni   N    O                             
   1.00000000000000     
     7.5306872196367305    0.0000000000000000    0.0000000000000000
     0.0000000000000000    7.5306872196367305    0.0000000000000000
     0.0000000000000000    0.0000000000000000   22.1000000000000014
   Ni   N    O 
    36     1     3
Selective dynamics
Direct
  0.1666666666666642  0.1666666666666642  0.0000000000000000   F   F   F
  0.4999999999999995  0.1666666666666642  0.0000000000000000   F   F   F
  0.8333333333333355  0.1666666666666642  0.0000000000000000   F   F   F
  0.1666666666666642  0.4999999999999995  0.0000000000000000   F   F   F
  0.4999999999999995  0.4999999999999995  0.0000000000000000   F   F   F
  0.8333333333333355  0.4999999999999995  0.0000000000000000   F   F   F
  0.1666666666666642  0.8333333333333355  0.0000000000000000   F   F   F
  0.4999999999999995  0.8333333333333355  0.0000000000000000   F   F   F
  0.8333333333333355  0.8333333333333355  0.0000000000000000   F   F   F
  0.0000000000000000  0.0000000000000000  0.0803167420814503   F   F   F
  0.3333333333333357  0.0000000000000000  0.0803167420814503   F   F   F
  0.6666666666666643  0.0000000000000000  0.0803167420814503   F   F   F
  0.0000000000000000  0.3333333333333357  0.0803167420814503   F   F   F
  0.3333333333333357  0.3333333333333357  0.0803167420814503   F   F   F
  0.6666666666666643  0.3333333333333357  0.0803167420814503   F   F   F
  0.0000000000000000  0.6666666666666643  0.0803167420814503   F   F   F
  0.3333333333333357  0.6666666666666643  0.0803167420814503   F   F   F
  0.6666666666666643  0.6666666666666643  0.0803167420814503   F   F   F
  0.1668087794168318  0.1667279906428845  0.1613879054915391   T   T   T
  0.4997027233805923  0.1687812654300945  0.1620674108680160   T   T   T
  0.8291571074257178  0.1696754085018713  0.1621794273502179   T   T   T
  0.1667903084820418  0.4999536557147052  0.1615376638709591   T   T   T
  0.4998038115069185  0.4993525605171966  0.1621294072932734   T   T   T
  0.8312502305897134  0.4996600243840425  0.1618011572848719   T   T   T
  0.1684742207462023  0.8306155620800229  0.1617134874138902   T   T   T
  0.4991940998355700  0.8317221998357941  0.1616484300730544   T   T   T
  0.8341031333512587  0.8356032883440054  0.1604298504117443   T   T   T
 -0.0002522470587775  0.9995007751323455  0.2386153051913506   T   T   T
  0.3327068517822466  0.9967545071353934  0.2388738387783781   T   T   T
  0.6660319682813727  0.9998596932649213  0.2389664316325364   T   T   T
 -0.0032422921516083  0.3317785866794623  0.2381405699468087   T   T   T
  0.3270199418387731  0.3246684379667928  0.2410466239536851   T   T   T
  0.6657104589818038  0.3364577343842582  0.2459038391626777   T   T   T
  0.9982772165255679  0.6681863463538807  0.2381976363174662   T   T   T
  0.3347465567074236  0.6683519483710622  0.2430619040761637   T   T   T
  0.6716985278454363  0.6742239879941032  0.2380561148114718   T   T   T
  0.4690014050765794  0.4423488301565622  0.3550784095664328   T   T   T
  0.4436069280470530  0.4702370453706246  0.4092014392780629   T   T   T
  0.6220241837477112  0.3896111969301267  0.3330723581754334   T   T   T
  0.3282536855801873  0.4693396411431375  0.3150808300890654   T   T   T
 
             NaN             NaN             NaN
             NaN             NaN             NaN
             NaN             NaN             NaN
             NaN             NaN             NaN
             NaN             NaN             NaN
             NaN             NaN             NaN
             NaN             NaN             NaN
             NaN             NaN             NaN
             NaN             NaN             NaN
             NaN             NaN             NaN
             NaN             NaN             NaN
             NaN             NaN             NaN
             NaN             NaN             NaN
             NaN             NaN             NaN
             NaN             NaN             NaN
             NaN             NaN             NaN
             NaN             NaN             NaN
             NaN             NaN             NaN
             NaN             NaN             NaN
             NaN             NaN             NaN
             NaN             NaN             NaN
             NaN             NaN             NaN
             NaN             NaN             NaN
             NaN             NaN             NaN
             NaN             NaN             NaN
             NaN             NaN             NaN
             NaN             NaN             NaN
             NaN             NaN             NaN
             NaN             NaN             NaN
             NaN             NaN             NaN
             NaN             NaN             NaN
             NaN             NaN             NaN
             NaN             NaN             NaN
             NaN             NaN             NaN
             NaN             NaN             NaN
             NaN             NaN             NaN
             NaN             NaN             NaN
             NaN             NaN             NaN
             NaN             NaN             NaN
             NaN             NaN             NaN
