Ni   N    O 
   1.00000000000000     
   7.5306872196367305   0.0000000000000000   0.0000000000000000
   0.0000000000000000   7.5306872196367305   0.0000000000000000
   0.0000000000000000   0.0000000000000000  22.1000000000000014
Ni   N    O 
36  1  3  
Selective dynamics
Direct
  0.1666666666666640  0.1666666666666640  0.0000000000000000 F F F
  0.5000000000000000  0.1666666666666640  0.0000000000000000 F F F
  0.8333333333333360  0.1666666666666640  0.0000000000000000 F F F
  0.1666666666666640  0.5000000000000000  0.0000000000000000 F F F
  0.5000000000000000  0.5000000000000000  0.0000000000000000 F F F
  0.8333333333333360  0.5000000000000000  0.0000000000000000 F F F
  0.1666666666666640  0.8333333333333360  0.0000000000000000 F F F
  0.5000000000000000  0.8333333333333360  0.0000000000000000 F F F
  0.8333333333333360  0.8333333333333360  0.0000000000000000 F F F
  0.0000000000000000  0.0000000000000000  0.0803167420814503 F F F
  0.3333333333333360  0.0000000000000000  0.0803167420814503 F F F
  0.6666666666666640  0.0000000000000000  0.0803167420814503 F F F
  0.0000000000000000  0.3333333333333360  0.0803167420814503 F F F
  0.3333333333333360  0.3333333333333360  0.0803167420814503 F F F
  0.6666666666666640  0.3333333333333360  0.0803167420814503 F F F
  0.0000000000000000  0.6666666666666640  0.0803167420814503 F F F
  0.3333333333333360  0.6666666666666640  0.0803167420814503 F F F
  0.6666666666666640  0.6666666666666640  0.0803167420814503 F F F
  0.1693890187448940  0.1685635758814570  0.1618208161595900 T T T
  0.5003311725294000  0.1697805332190190  0.1624689044952350 T T T
  0.8318349105126760  0.1689839420977820  0.1619673709751480 T T T
  0.1692017302603050  0.4980853520520160  0.1613326371055020 T T T
  0.5000866703338290  0.4967866898900300  0.1623528200385990 T T T
  0.8308736347926809  0.4981413335257370  0.1618603869238770 T T T
  0.1662717217699310  0.8335208592655620  0.1604673044378800 T T T
  0.4994897383078580  0.8328416709411780  0.1606701555958670 T T T
  0.8335665453111010  0.8332539308131430  0.1605754533783500 T T T
  0.0001497128921955  0.9997256824026050  0.2381487200842900 T T T
  0.3330646183801210  0.9967478183966850  0.2380028515460350 T T T
  0.6674423902455260  0.9968026403131920  0.2379503044426700 T T T
  0.0016497650493790  0.3343643709635560  0.2384096143494290 T T T
  0.3323181893222510  0.3321694713166040  0.2466025441352930 T T T
  0.6711421204518260  0.3334975283738900  0.2457104847640960 T T T
  0.9989956741580670  0.6685721283153110  0.2386443441652450 T T T
  0.3317278810534110  0.6686782992850691  0.2384990444328710 T T T
  0.6663525286109430  0.6696163406254030  0.2380473426285260 T T T
  0.4895059272662080  0.3252205602572860  0.3584373690757450 T T T
  0.4767416661745470  0.3212232683962310  0.4127129119050750 T T T
  0.6442863047768060  0.3275538865543060  0.3334389244093710 T T T
  0.3168649165456760  0.3635323212095260  0.3252769523789570 T T T
