Cu   Ni   Cu   N    O 
   1.00000000000000     
   7.8488852711706798   0.0000000000000000   0.0000000000000000
   3.9244426355853399   6.7973340362233197   0.0000000000000000
   0.0000000000000000   0.0000000000000000  23.5447839840065001
Cu   Ni   Cu   N    O 
31  1  4  1  3  
Selective dynamics
Direct
  0.0000000000000000  0.0000000000000000  0.0000000000000000 F F F
  0.3333333333333357  0.0000000000000000  0.0000000000000000 F F F
  0.6666666666666643  0.0000000000000000  0.0000000000000000 F F F
  0.0000000000000000  0.3333333333333357  0.0000000000000000 F F F
  0.3333333333333357  0.3333333333333357  0.0000000000000000 F F F
  0.6666666666666643  0.3333333333333357  0.0000000000000000 F F F
  0.0000000000000000  0.6666666666666643  0.0000000000000000 F F F
  0.3333333333333357  0.6666666666666643  0.0000000000000000 F F F
  0.6666666666666643  0.6666666666666643  0.0000000000000000 F F F
  0.1111111111111143  0.1111111111111143  0.0907290547856689 F F F
  0.4444444444444429  0.1111111111111143  0.0907290547856689 F F F
  0.7777777777777786  0.1111111111111143  0.0907290547856689 F F F
  0.1111111111111143  0.4444444444444429  0.0907290547856689 F F F
  0.4444444444444429  0.4444444444444429  0.0907290547856689 F F F
  0.7777777777777786  0.4444444444444429  0.0907290547856689 F F F
  0.1111111111111143  0.7777777777777786  0.0907290547856689 F F F
  0.4444444444444429  0.7777777777777786  0.0907290547856689 F F F
  0.7777777777777786  0.7777777777777786  0.0907290547856689 F F F
  0.8866625775458959  0.2226883509652989  0.1804974657233078 T T T
  0.2269447338562853  0.2224117614661924  0.1810107017816785 T T T
  0.5542140667163323  0.2236223703969881  0.1829187788434032 T T T
  0.8910842517731492  0.5539139520989006  0.1788553578211288 T T T
  0.2259614850347037  0.5479808357990343  0.1799824167390702 T T T
  0.5564342493387537  0.5531306860882058  0.1795685696922426 T T T
  0.8862482418834206  0.8887559791804919  0.1795704265865672 T T T
  0.2238742468237609  0.8891747072697670  0.1788739275930024 T T T
  0.5556654987715153  0.8887128545896235  0.1791208980348208 T T T
  0.0013246874317821  0.9958392661019304  0.2661872145625859 T T T
  0.3258275527075572  0.9906143559151364  0.2692276112321067 T T T
  0.6819549464486031  0.9876407458520876  0.2707026967036328 T T T
  0.0020865011856097  0.3340401316774284  0.2666887995908063 T T T
  0.3288726588820697  0.3412985457444009  0.2817751686611336 T T T
  0.6774918576843141  0.3329145828524572  0.2716814483954771 T T T
  0.0039684388944135  0.6623355516589885  0.2666813632637997 T T T
  0.3281209135984930  0.6677719821761972  0.2649036980453928 T T T
  0.6725893845135009  0.6624808877942975  0.2656695506572295 T T T
  0.3850161094232127  0.4343088587687924  0.3520271425956352 T T T
  0.2828491478854200  0.4838382429171663  0.3947502238682651 T T T
  0.5658217766658161  0.4009335258926570  0.3546901731266065 T T T
  0.4515996560126236  0.0879727390708682  0.3162498333750899 T T T
