Pd   N    O 
   1.00000000000000     
   8.4216417639317793   0.0000000000000000   0.0000000000000000
   4.2108208819658897   7.2933557091369101   0.0000000000000000
   0.0000000000000000   0.0000000000000000  24.1683222747312989
Pd   N    O 
36  1  3  
Selective dynamics
Direct
  0.0000000000000000  0.0000000000000000  0.0000000000000000 F F F
  0.3333333333333357  0.0000000000000000  0.0000000000000000 F F F
  0.6666666666666643  0.0000000000000000  0.0000000000000000 F F F
  0.0000000000000000  0.3333333333333357  0.0000000000000000 F F F
  0.3333333333333357  0.3333333333333357  0.0000000000000000 F F F
  0.6666666666666643  0.3333333333333357  0.0000000000000000 F F F
  0.0000000000000000  0.6666666666666643  0.0000000000000000 F F F
  0.3333333333333357  0.6666666666666643  0.0000000000000000 F F F
  0.6666666666666643  0.6666666666666643  0.0000000000000000 F F F
  0.1111111111111143  0.1111111111111143  0.0948382160179690 F F F
  0.4444444444444429  0.1111111111111143  0.0948382160179690 F F F
  0.7777777777777786  0.1111111111111143  0.0948382160179690 F F F
  0.1111111111111143  0.4444444444444429  0.0948382160179690 F F F
  0.4444444444444429  0.4444444444444429  0.0948382160179690 F F F
  0.7777777777777786  0.4444444444444429  0.0948382160179690 F F F
  0.1111111111111143  0.7777777777777786  0.0948382160179690 F F F
  0.4444444444444429  0.7777777777777786  0.0948382160179690 F F F
  0.7777777777777786  0.7777777777777786  0.0948382160179690 F F F
  0.8870599721257354  0.2233421580112768  0.1907715760047558 T T T
  0.2256001296370729  0.2247172681674715  0.1921999991578093 T T T
  0.5546985497388670  0.2228943337142827  0.1908179613506931 T T T
  0.8903998152444569  0.5543058891263023  0.1883534789776126 T T T
  0.2237072805425842  0.5527021444404512  0.1898697044473990 T T T
  0.5567414373250141  0.5536509699236276  0.1884770146889978 T T T
  0.8883064672726185  0.8893425441139330  0.1904511943563249 T T T
  0.2228444992108788  0.8916171086979600  0.1898517613572120 T T T
  0.5560751106513817  0.8888702423127189  0.1883060683276926 T T T
  0.0041792711552154  0.9941427617906750  0.2851846091262910 T T T
  0.3303511133057840  0.9903953177664010  0.2859943483907867 T T T
  0.6797763350009041  0.9887284129942711  0.2849341395912506 T T T
  0.0005634519542509  0.3307830139666815  0.2844670534425939 T T T
  0.3270696796027361  0.3426359772223916  0.2994140761344770 T T T
  0.6749966551971067  0.3290074979950218  0.2870056954260997 T T T
  0.0030934813685104  0.6613306319189856  0.2839901243825402 T T T
  0.3320649247021514  0.6667654496999050  0.2822166281851471 T T T
  0.6713241101678791  0.6602875871396342  0.2821066705859335 T T T
  0.4007662382202055  0.4233278863087397  0.3734538193931679 T T T
  0.3029752405615881  0.4758287234519499  0.4144666225586107 T T T
  0.5704683590179436  0.3798321453904896  0.3751729383698710 T T T
  0.4595314883199906  0.0807724426344229  0.3328986442760477 T T T
