Rh                                      
   1.00000000000000     
     8.2095097295758173    0.0000000000000000    0.0000000000000000
     0.0000000000000000    8.2095097295758173    0.0000000000000000
     0.0000000000000000    0.0000000000000000   22.7400000000000020
   Rh
    36
Selective dynamics
Direct
  0.1666666666666643  0.1666666666666643  0.0000000000000000   F   F   F
  0.5000000000000000  0.1666666666666643  0.0000000000000000   F   F   F
  0.8333333333333357  0.1666666666666643  0.0000000000000000   F   F   F
  0.1666666666666643  0.5000000000000000  0.0000000000000000   F   F   F
  0.5000000000000000  0.5000000000000000  0.0000000000000000   F   F   F
  0.8333333333333357  0.5000000000000000  0.0000000000000000   F   F   F
  0.1666666666666643  0.8333333333333357  0.0000000000000000   F   F   F
  0.5000000000000000  0.8333333333333357  0.0000000000000000   F   F   F
  0.8333333333333357  0.8333333333333357  0.0000000000000000   F   F   F
  0.0000000000000000  0.0000000000000000  0.0850923482849595   F   F   F
  0.3333333333333357  0.0000000000000000  0.0850923482849595   F   F   F
  0.6666666666666643  0.0000000000000000  0.0850923482849595   F   F   F
  0.0000000000000000  0.3333333333333357  0.0850923482849595   F   F   F
  0.3333333333333357  0.3333333333333357  0.0850923482849595   F   F   F
  0.6666666666666643  0.3333333333333357  0.0850923482849595   F   F   F
  0.0000000000000000  0.6666666666666643  0.0850923482849595   F   F   F
  0.3333333333333357  0.6666666666666643  0.0850923482849595   F   F   F
  0.6666666666666643  0.6666666666666643  0.0850923482849595   F   F   F
  0.1666622614811940  0.1666652952432424  0.1696114610179276   T   T   T
  0.5000011600854253  0.1666648107256176  0.1696108456606386   T   T   T
  0.8333365818850632  0.1666648016274609  0.1696121786681077   T   T   T
  0.1666623608429008  0.5000024783718180  0.1696115805371076   T   T   T
  0.4999990838258497  0.5000009849586130  0.1696104709536245   T   T   T
  0.8333385938898538  0.5000008829307334  0.1696119147718716   T   T   T
  0.1666623388738530  0.8333322307935219  0.1696123214861422   T   T   T
  0.4999995798228849  0.8333342161357105  0.1696110850807519   T   T   T
  0.8333380971258804  0.8333343321943059  0.1696127356493866   T   T   T
  0.0000001201817907  0.0000017346981038  0.2508869620938957   T   T   T
  0.3333339919122773 -0.0000004797880626  0.2508818672256006   T   T   T
  0.6666658400776925  0.0000020717881128  0.2508836951108614   T   T   T
  0.0000003739463900  0.3333335058624219  0.2508851030530644   T   T   T
  0.3333327296594949  0.3333347224270973  0.2508804356494593   T   T   T
  0.6666668355272984  0.3333319371241826  0.2508807427406581   T   T   T
  0.0000029138903887  0.6666646935717266  0.2508867166530444   T   T   T
  0.3333323916663981  0.6666657179795163  0.2508813314127140   T   T   T
  0.6666646907375354  0.6666659598489610  0.2508821792138595   T   T   T
 
  0.00000000E+00  0.00000000E+00  0.00000000E+00
  0.00000000E+00  0.00000000E+00  0.00000000E+00
  0.00000000E+00  0.00000000E+00  0.00000000E+00
  0.00000000E+00  0.00000000E+00  0.00000000E+00
  0.00000000E+00  0.00000000E+00  0.00000000E+00
  0.00000000E+00  0.00000000E+00  0.00000000E+00
  0.00000000E+00  0.00000000E+00  0.00000000E+00
  0.00000000E+00  0.00000000E+00  0.00000000E+00
  0.00000000E+00  0.00000000E+00  0.00000000E+00
  0.00000000E+00  0.00000000E+00  0.00000000E+00
  0.00000000E+00  0.00000000E+00  0.00000000E+00
  0.00000000E+00  0.00000000E+00  0.00000000E+00
  0.00000000E+00  0.00000000E+00  0.00000000E+00
  0.00000000E+00  0.00000000E+00  0.00000000E+00
  0.00000000E+00  0.00000000E+00  0.00000000E+00
  0.00000000E+00  0.00000000E+00  0.00000000E+00
  0.00000000E+00  0.00000000E+00  0.00000000E+00
  0.00000000E+00  0.00000000E+00  0.00000000E+00
  0.00000000E+00  0.00000000E+00  0.00000000E+00
  0.00000000E+00  0.00000000E+00  0.00000000E+00
  0.00000000E+00  0.00000000E+00  0.00000000E+00
  0.00000000E+00  0.00000000E+00  0.00000000E+00
  0.00000000E+00  0.00000000E+00  0.00000000E+00
  0.00000000E+00  0.00000000E+00  0.00000000E+00
  0.00000000E+00  0.00000000E+00  0.00000000E+00
  0.00000000E+00  0.00000000E+00  0.00000000E+00
  0.00000000E+00  0.00000000E+00  0.00000000E+00
  0.00000000E+00  0.00000000E+00  0.00000000E+00
  0.00000000E+00  0.00000000E+00  0.00000000E+00
  0.00000000E+00  0.00000000E+00  0.00000000E+00
  0.00000000E+00  0.00000000E+00  0.00000000E+00
  0.00000000E+00  0.00000000E+00  0.00000000E+00
  0.00000000E+00  0.00000000E+00  0.00000000E+00
  0.00000000E+00  0.00000000E+00  0.00000000E+00
  0.00000000E+00  0.00000000E+00  0.00000000E+00
  0.00000000E+00  0.00000000E+00  0.00000000E+00
