Pd   N    O 
   1.00000000000000     
   8.4216417639317793   0.0000000000000000   0.0000000000000000
   0.0000000000000000   8.4216417639317793   0.0000000000000000
   0.0000000000000000   0.0000000000000000  22.9400000000000013
Pd   N    O 
36  1  3  
Selective dynamics
Direct
  0.1666666666666640  0.1666666666666640  0.0000000000000000 F F F
  0.5000000000000000  0.1666666666666640  0.0000000000000000 F F F
  0.8333333333333360  0.1666666666666640  0.0000000000000000 F F F
  0.1666666666666640  0.5000000000000000  0.0000000000000000 F F F
  0.5000000000000000  0.5000000000000000  0.0000000000000000 F F F
  0.8333333333333360  0.5000000000000000  0.0000000000000000 F F F
  0.1666666666666640  0.8333333333333360  0.0000000000000000 F F F
  0.5000000000000000  0.8333333333333360  0.0000000000000000 F F F
  0.8333333333333360  0.8333333333333360  0.0000000000000000 F F F
  0.0000000000000000  0.0000000000000000  0.0865300784655645 F F F
  0.3333333333333360  0.0000000000000000  0.0865300784655645 F F F
  0.6666666666666640  0.0000000000000000  0.0865300784655645 F F F
  0.0000000000000000  0.3333333333333360  0.0865300784655645 F F F
  0.3333333333333360  0.3333333333333360  0.0865300784655645 F F F
  0.6666666666666640  0.3333333333333360  0.0865300784655645 F F F
  0.0000000000000000  0.6666666666666640  0.0865300784655645 F F F
  0.3333333333333360  0.6666666666666640  0.0865300784655645 F F F
  0.6666666666666640  0.6666666666666640  0.0865300784655645 F F F
  0.1673115066630470  0.1672885447915040  0.1730406280115060 T T T
  0.5011769769107129  0.1683473183143820  0.1734356906641710 T T T
  0.8349524759314730  0.1682163690651710  0.1732870152439930 T T T
  0.1673114958194830  0.4993777453110580  0.1730403254941490 T T T
  0.5011768215427070  0.4983206044480540  0.1734357045208910 T T T
  0.8349522688597451  0.4984497776920380  0.1732869999683690 T T T
  0.1667416295726980  0.8333332431116670  0.1719692102076210 T T T
  0.5007489926990660  0.8333341080437440  0.1720538723612960 T T T
  0.8332949550426180  0.8333335540791040  0.1721171140746800 T T T
  0.0000855219918492  0.9974062495116560  0.2581052134403380 T T T
  0.3344517233819100  0.9971194577787230  0.2577013596246760 T T T
  0.6682916827723629  0.9982814229209610  0.2585272090569500 T T T
  0.9995155458154630  0.3333327902363270  0.2620394576604990 T T T
  0.3439174017203260  0.3333340689461510  0.2602449105812710 T T T
  0.6727251345082340  0.3333342553897940  0.2607001826192460 T T T
  0.0000861145522890  0.6692594267141490  0.2581050674485890 T T T
  0.3344515235528650  0.6695472460053010  0.2577013411667080 T T T
  0.6682905470869041  0.6683864413429600  0.2585271560107500 T T T
  0.3536192279912170  0.3333328087998670  0.3949874087499270 T T T
  0.2992385100029790  0.3333328035926400  0.4444639026161990 T T T
  0.4954103093710240  0.3333322771932500  0.3801396114875640 T T T
  0.2141971794020280  0.3333332614229080  0.3321989256519230 T T T
