 N  O                                   
   1.00000000000000     
     7.8488852711706798    0.0000000000000000    0.0000000000000000
     0.0000000000000000    7.8488852711706798    0.0000000000000000
     0.0000000000000000    0.0000000000000000   22.3999999999999986
   N    O 
     1     2
Direct
  0.5364142087051817  0.4750420220073792  0.3663186546657116
  0.5203306750263508  0.5424666686564450  0.4145482468498756
  0.6566544972216946  0.3864943215093390  0.3478346159645653
 
  0.00000000E+00  0.00000000E+00  0.00000000E+00
  0.00000000E+00  0.00000000E+00  0.00000000E+00
  0.00000000E+00  0.00000000E+00  0.00000000E+00
