Pd   N    O                             
   1.00000000000000     
     8.4216417639317793    0.0000000000000000    0.0000000000000000
     4.2108208819658897    7.2933557091369101    0.0000000000000000
     0.0000000000000000    0.0000000000000000   24.1683222747312989
   Pd   N    O 
    36     1     3
Selective dynamics
Direct
  0.0000000000000000  0.0000000000000000  0.0000000000000000   F   F   F
  0.3333333333333357  0.0000000000000000  0.0000000000000000   F   F   F
  0.6666666666666643  0.0000000000000000  0.0000000000000000   F   F   F
  0.0000000000000000  0.3333333333333357  0.0000000000000000   F   F   F
  0.3333333333333357  0.3333333333333357  0.0000000000000000   F   F   F
  0.6666666666666643  0.3333333333333357  0.0000000000000000   F   F   F
 -0.0000000000000000  0.6666666666666644  0.0000000000000000   F   F   F
  0.3333333333333356  0.6666666666666644  0.0000000000000000   F   F   F
  0.6666666666666642  0.6666666666666644  0.0000000000000000   F   F   F
  0.1111111111111143  0.1111111111111143  0.0948382160179690   F   F   F
  0.4444444444444429  0.1111111111111143  0.0948382160179690   F   F   F
  0.7777777777777785  0.1111111111111143  0.0948382160179690   F   F   F
  0.1111111111111142  0.4444444444444429  0.0948382160179690   F   F   F
  0.4444444444444429  0.4444444444444429  0.0948382160179690   F   F   F
  0.7777777777777786  0.4444444444444429  0.0948382160179690   F   F   F
  0.1111111111111143  0.7777777777777786  0.0948382160179690   F   F   F
  0.4444444444444429  0.7777777777777786  0.0948382160179690   F   F   F
  0.7777777777777786  0.7777777777777786  0.0948382160179690   F   F   F
  0.8843276754988879  0.2251972230742516  0.1906938305012877   T   T   T
  0.2217103588023014  0.2257027412925075  0.1911657017512965   T   T   T
  0.5532355056781026  0.2242537248963499  0.1900313798530989   T   T   T
  0.8866316106382892  0.5567031232387528  0.1890283741730805   T   T   T
  0.2198721778723348  0.5568810689630678  0.1892028492616987   T   T   T
  0.5545089827307031  0.5551629181044788  0.1899619910443936   T   T   T
  0.8869203290263873  0.8904353490413573  0.1886770433174001   T   T   T
  0.2195544188617257  0.8920746407340383  0.1885116184620574   T   T   T
  0.5533087514681931  0.8897590279863093  0.1888318407541414   T   T   T
  0.9957197967725643  0.0022149276627507  0.2845693602322604   T   T   T
  0.3281688792324546  0.0022479984046430  0.2848756711014436   T   T   T
  0.6628767036519471  0.9997184740622310  0.2835715508916471   T   T   T
  0.9943217362771284  0.3361428253942944  0.2849442620576681   T   T   T
  0.3276292150193999  0.3371475606977055  0.2876108506619086   T   T   T
  0.6596960078191333  0.3366515032710295  0.2884092858999386   T   T   T
  0.9930306173285874  0.6710160362072708  0.2836496231930334   T   T   T
  0.3249970602891505  0.6762107119976755  0.2827989395947668   T   T   T
  0.6616702207882329  0.6705042812292096  0.2842472181032150   T   T   T
  0.4714706503628666  0.3815602506296350  0.4025695780978233   T   T   T
  0.4578145857847721  0.4036960202437105  0.4529826203982119   T   T   T
  0.6251343075517718  0.3396739657320250  0.3779450674989107   T   T   T
  0.3300555242023316  0.4015345035663206  0.3744004838815659   T   T   T
 
             NaN             NaN             NaN
             NaN             NaN             NaN
             NaN             NaN             NaN
             NaN             NaN             NaN
             NaN             NaN             NaN
             NaN             NaN             NaN
             NaN             NaN             NaN
             NaN             NaN             NaN
             NaN             NaN             NaN
             NaN             NaN             NaN
             NaN             NaN             NaN
             NaN             NaN             NaN
             NaN             NaN             NaN
             NaN             NaN             NaN
             NaN             NaN             NaN
             NaN             NaN             NaN
             NaN             NaN             NaN
             NaN             NaN             NaN
             NaN             NaN             NaN
             NaN             NaN             NaN
             NaN             NaN             NaN
             NaN             NaN             NaN
             NaN             NaN             NaN
             NaN             NaN             NaN
             NaN             NaN             NaN
             NaN             NaN             NaN
             NaN             NaN             NaN
             NaN             NaN             NaN
             NaN             NaN             NaN
             NaN             NaN             NaN
             NaN             NaN             NaN
             NaN             NaN             NaN
             NaN             NaN             NaN
             NaN             NaN             NaN
             NaN             NaN             NaN
             NaN             NaN             NaN
             NaN             NaN             NaN
             NaN             NaN             NaN
             NaN             NaN             NaN
             NaN             NaN             NaN
