Pd                                      
   1.00000000000000     
     8.4216417639317811    0.0000000000000000    0.0000000000000000
     0.0000000000000000    8.4216417639317811    0.0000000000000000
     0.0000000000000000    0.0000000000000000   22.9400000000000013
   Pd
    36
Selective dynamics
Direct
  0.1666666666666643  0.1666666666666643  0.0000000000000000   F   F   F
  0.5000000000000000  0.1666666666666643  0.0000000000000000   F   F   F
  0.8333333333333357  0.1666666666666643  0.0000000000000000   F   F   F
  0.1666666666666643  0.5000000000000000  0.0000000000000000   F   F   F
  0.5000000000000000  0.5000000000000000  0.0000000000000000   F   F   F
  0.8333333333333357  0.5000000000000000  0.0000000000000000   F   F   F
  0.1666666666666643  0.8333333333333357  0.0000000000000000   F   F   F
  0.5000000000000000  0.8333333333333357  0.0000000000000000   F   F   F
  0.8333333333333357  0.8333333333333357  0.0000000000000000   F   F   F
  0.0000000000000000  0.0000000000000000  0.0865300784655645   F   F   F
  0.3333333333333357  0.0000000000000000  0.0865300784655645   F   F   F
  0.6666666666666643  0.0000000000000000  0.0865300784655645   F   F   F
  0.0000000000000000  0.3333333333333357  0.0865300784655645   F   F   F
  0.3333333333333357  0.3333333333333357  0.0865300784655645   F   F   F
  0.6666666666666643  0.3333333333333357  0.0865300784655645   F   F   F
  0.0000000000000000  0.6666666666666643  0.0865300784655645   F   F   F
  0.3333333333333357  0.6666666666666643  0.0865300784655645   F   F   F
  0.6666666666666643  0.6666666666666643  0.0865300784655645   F   F   F
  0.1666631894039466  0.1666678161662102  0.1728771713804176   T   T   T
  0.5000034621275374  0.1666675715332983  0.1728759588175982   T   T   T
  0.8333333394465349  0.1666677470835779  0.1728783233635378   T   T   T
  0.1666632688189450  0.4999965357702058  0.1728710621913344   T   T   T
  0.5000032875161581  0.4999966894830835  0.1728697651395698   T   T   T
  0.8333334542553688  0.4999964678538710  0.1728720911061502   T   T   T
  0.1666634219673769  0.8333356472793205  0.1728735349107804   T   T   T
  0.5000033876601091  0.8333357286265544  0.1728723303183909   T   T   T
  0.8333332147563419  0.8333358209860285  0.1728746241026222   T   T   T
 -0.0000035910175181  0.9999904424201976  0.2587682542344842   T   T   T
  0.3333291733402533  0.9999896569890713  0.2587577147961301   T   T   T
  0.6666743974925247  0.9999905771251137  0.2587642215898118   T   T   T
 -0.0000031087969898  0.3333503816937874  0.2587646724828477   T   T   T
  0.3333287634902728  0.3333511926171349  0.2587546530340711   T   T   T
  0.6666743385139779  0.3333497545898062  0.2587605606144730   T   T   T
 -0.0000021268696071  0.6666592432133369  0.2587584327436166   T   T   T
  0.3333286043350465  0.6666591555674329  0.2587495941005860   T   T   T
  0.6666735766908600  0.6666596123574138  0.2587536590291274   T   T   T
 
  0.00000000E+00  0.00000000E+00  0.00000000E+00
  0.00000000E+00  0.00000000E+00  0.00000000E+00
  0.00000000E+00  0.00000000E+00  0.00000000E+00
  0.00000000E+00  0.00000000E+00  0.00000000E+00
  0.00000000E+00  0.00000000E+00  0.00000000E+00
  0.00000000E+00  0.00000000E+00  0.00000000E+00
  0.00000000E+00  0.00000000E+00  0.00000000E+00
  0.00000000E+00  0.00000000E+00  0.00000000E+00
  0.00000000E+00  0.00000000E+00  0.00000000E+00
  0.00000000E+00  0.00000000E+00  0.00000000E+00
  0.00000000E+00  0.00000000E+00  0.00000000E+00
  0.00000000E+00  0.00000000E+00  0.00000000E+00
  0.00000000E+00  0.00000000E+00  0.00000000E+00
  0.00000000E+00  0.00000000E+00  0.00000000E+00
  0.00000000E+00  0.00000000E+00  0.00000000E+00
  0.00000000E+00  0.00000000E+00  0.00000000E+00
  0.00000000E+00  0.00000000E+00  0.00000000E+00
  0.00000000E+00  0.00000000E+00  0.00000000E+00
  0.00000000E+00  0.00000000E+00  0.00000000E+00
  0.00000000E+00  0.00000000E+00  0.00000000E+00
  0.00000000E+00  0.00000000E+00  0.00000000E+00
  0.00000000E+00  0.00000000E+00  0.00000000E+00
  0.00000000E+00  0.00000000E+00  0.00000000E+00
  0.00000000E+00  0.00000000E+00  0.00000000E+00
  0.00000000E+00  0.00000000E+00  0.00000000E+00
  0.00000000E+00  0.00000000E+00  0.00000000E+00
  0.00000000E+00  0.00000000E+00  0.00000000E+00
  0.00000000E+00  0.00000000E+00  0.00000000E+00
  0.00000000E+00  0.00000000E+00  0.00000000E+00
  0.00000000E+00  0.00000000E+00  0.00000000E+00
  0.00000000E+00  0.00000000E+00  0.00000000E+00
  0.00000000E+00  0.00000000E+00  0.00000000E+00
  0.00000000E+00  0.00000000E+00  0.00000000E+00
  0.00000000E+00  0.00000000E+00  0.00000000E+00
  0.00000000E+00  0.00000000E+00  0.00000000E+00
  0.00000000E+00  0.00000000E+00  0.00000000E+00
