Cu  N  O                                
   1.00000000000000     
     7.8488852711706798    0.0000000000000000    0.0000000000000000
     3.9244426355853399    6.7973340362233197    0.0000000000000000
     0.0000000000000000    0.0000000000000000   23.5447839840065001
   Cu   N    O 
    36     1     3
Selective dynamics
Direct
  0.0000000000000000  0.0000000000000000  0.0000000000000000   F   F   F
  0.3333333333333357  0.0000000000000000  0.0000000000000000   F   F   F
  0.6666666666666643  0.0000000000000000  0.0000000000000000   F   F   F
  0.0000000000000000  0.3333333333333357  0.0000000000000000   F   F   F
  0.3333333333333357  0.3333333333333357  0.0000000000000000   F   F   F
  0.6666666666666643  0.3333333333333357  0.0000000000000000   F   F   F
  0.9999999999999858  0.6666666666666643  0.0000000000000000   F   F   F
  0.3333333333333357  0.6666666666666643  0.0000000000000000   F   F   F
  0.6666666666666643  0.6666666666666643  0.0000000000000000   F   F   F
  0.1111111111111143  0.1111111111111143  0.0907290547856689   F   F   F
  0.4444444444444429  0.1111111111111143  0.0907290547856689   F   F   F
  0.7777777777777786  0.1111111111111143  0.0907290547856689   F   F   F
  0.1111111111111143  0.4444444444444429  0.0907290547856689   F   F   F
  0.4444444444444429  0.4444444444444429  0.0907290547856689   F   F   F
  0.7777777777777786  0.4444444444444429  0.0907290547856689   F   F   F
  0.1111111111111143  0.7777777777777786  0.0907290547856689   F   F   F
  0.4444444444444429  0.7777777777777786  0.0907290547856689   F   F   F
  0.7777777777777786  0.7777777777777786  0.0907290547856689   F   F   F
  0.8891265917331737  0.2220645282619387  0.1784311522734967   F   F   F
  0.2237928600579622  0.2234267705490396  0.1795508008581237   F   F   F
  0.5542191403272412  0.2237785512897830  0.1795366294108192   F   F   F
  0.8899227040159658  0.5552455271050718  0.1789494786401775   F   F   F
  0.2218074364810860  0.5558114501397853  0.1799345480623415   F   F   F
  0.5540460306824500  0.5553523687160720  0.1796173021516054   F   F   F
  0.8899418552822524  0.8880995399727709  0.1789648338026169   F   F   F
  0.2239210120351132  0.8858118345468426  0.1796619406097761   F   F   F
  0.5558426671460523  0.8887196850740580  0.1784453397467587   F   F   F
  0.9991940251799960  0.0013817991158191  0.2659913875302138   F   F   F
  0.3339727165832542  0.9996285401420408  0.2662256879511347   F   F   F
  0.6661705167251952  0.0000196621210975  0.2661712288014471   F   F   F
  0.9991302318708719  0.3326494440172638  0.2659582972256089   F   F   F
  0.3351480252990982  0.3278626844066608  0.2683426457917832   F   F   F
  0.6727716553880256  0.3302076595798482  0.2666493255929510   F   F   F
  0.9887683292082130  0.6722396100799344  0.2668184594855916   F   F   F
  0.3351584838350092  0.6700516777602914  0.2687999193508048   F   F   F
  0.6661593355442008  0.6671176112815473  0.2661727934343148   F   F   F
  0.3543418636336142  0.4882429416597489  0.3901374071481669   T   T   T
  0.2451147960344784  0.5391791390521021  0.4320497755631223   T   T   T
  0.5372266618728716  0.3996696533105535  0.3907544090802375   T   T   T
  0.2620836776975466  0.5353516020209312  0.3368875909606375   T   T   T
 
  0.00000000E+00  0.00000000E+00  0.00000000E+00
  0.00000000E+00  0.00000000E+00  0.00000000E+00
  0.00000000E+00  0.00000000E+00  0.00000000E+00
  0.00000000E+00  0.00000000E+00  0.00000000E+00
  0.00000000E+00  0.00000000E+00  0.00000000E+00
  0.00000000E+00  0.00000000E+00  0.00000000E+00
  0.00000000E+00  0.00000000E+00  0.00000000E+00
  0.00000000E+00  0.00000000E+00  0.00000000E+00
  0.00000000E+00  0.00000000E+00  0.00000000E+00
  0.00000000E+00  0.00000000E+00  0.00000000E+00
  0.00000000E+00  0.00000000E+00  0.00000000E+00
  0.00000000E+00  0.00000000E+00  0.00000000E+00
  0.00000000E+00  0.00000000E+00  0.00000000E+00
  0.00000000E+00  0.00000000E+00  0.00000000E+00
  0.00000000E+00  0.00000000E+00  0.00000000E+00
  0.00000000E+00  0.00000000E+00  0.00000000E+00
  0.00000000E+00  0.00000000E+00  0.00000000E+00
  0.00000000E+00  0.00000000E+00  0.00000000E+00
  0.00000000E+00  0.00000000E+00  0.00000000E+00
  0.00000000E+00  0.00000000E+00  0.00000000E+00
  0.00000000E+00  0.00000000E+00  0.00000000E+00
  0.00000000E+00  0.00000000E+00  0.00000000E+00
  0.00000000E+00  0.00000000E+00  0.00000000E+00
  0.00000000E+00  0.00000000E+00  0.00000000E+00
  0.00000000E+00  0.00000000E+00  0.00000000E+00
  0.00000000E+00  0.00000000E+00  0.00000000E+00
  0.00000000E+00  0.00000000E+00  0.00000000E+00
  0.00000000E+00  0.00000000E+00  0.00000000E+00
  0.00000000E+00  0.00000000E+00  0.00000000E+00
  0.00000000E+00  0.00000000E+00  0.00000000E+00
  0.00000000E+00  0.00000000E+00  0.00000000E+00
  0.00000000E+00  0.00000000E+00  0.00000000E+00
  0.00000000E+00  0.00000000E+00  0.00000000E+00
  0.00000000E+00  0.00000000E+00  0.00000000E+00
  0.00000000E+00  0.00000000E+00  0.00000000E+00
  0.00000000E+00  0.00000000E+00  0.00000000E+00
  0.00000000E+00  0.00000000E+00  0.00000000E+00
  0.00000000E+00  0.00000000E+00  0.00000000E+00
  0.00000000E+00  0.00000000E+00  0.00000000E+00
  0.00000000E+00  0.00000000E+00  0.00000000E+00
