Cu   Pd   Cu   N    O 
   1.00000000000000     
   7.8488852711706798   0.0000000000000000   0.0000000000000000
   0.0000000000000000   7.8488852711706798   0.0000000000000000
   0.0000000000000000   0.0000000000000000  22.3999999999999986
Cu   Pd   Cu   N    O 
31  1  4  1  3  
Selective dynamics
Direct
  0.1666666666666643  0.1666666666666643  0.0000000000000000 F F F
  0.5000000000000000  0.1666666666666643  0.0000000000000000 F F F
  0.8333333333333357  0.1666666666666643  0.0000000000000000 F F F
  0.1666666666666643  0.5000000000000000  0.0000000000000000 F F F
  0.5000000000000000  0.5000000000000000  0.0000000000000000 F F F
  0.8333333333333357  0.5000000000000000  0.0000000000000000 F F F
  0.1666666666666643  0.8333333333333357  0.0000000000000000 F F F
  0.5000000000000000  0.8333333333333357  0.0000000000000000 F F F
  0.8333333333333357  0.8333333333333357  0.0000000000000000 F F F
  0.0000000000000000  0.0000000000000000  0.0825892857142847 F F F
  0.3333333333333357  0.0000000000000000  0.0825892857142847 F F F
  0.6666666666666643  0.0000000000000000  0.0825892857142847 F F F
  0.0000000000000000  0.3333333333333357  0.0825892857142847 F F F
  0.3333333333333357  0.3333333333333357  0.0825892857142847 F F F
  0.6666666666666643  0.3333333333333357  0.0825892857142847 F F F
  0.0000000000000000  0.6666666666666643  0.0825892857142847 F F F
  0.3333333333333357  0.6666666666666643  0.0825892857142847 F F F
  0.6666666666666643  0.6666666666666643  0.0825892857142847 F F F
  0.1657787173336260  0.1729280475186466  0.1645013905105235 T T T
  0.5000507651969839  0.1692466484933776  0.1652234503456267 T T T
  0.8300647826179833  0.1703014147212721  0.1647062861024793 T T T
  0.1680586292982351  0.5001407136034397  0.1644586046918608 T T T
  0.5025244785446599  0.4955768607335634  0.1655104067469934 T T T
  0.8311569209215425  0.4977615437020920  0.1619027712170295 T T T
  0.1654103196683928  0.8332537081716933  0.1639118242759324 T T T
  0.5030037880590011  0.8299410379594538  0.1642187688114393 T T T
  0.8346818042940418  0.8319104012438155  0.1637332642057230 T T T
  0.0002607816744886  0.0058786531002641  0.2411893868134581 T T T
  0.3306069387716481  0.9952263451563034  0.2417059297651392 T T T
  0.6659017282300786  0.9936957206675190  0.2413621142152066 T T T
  0.9963617977438400  0.3360571725717766  0.2457373028924102 T T T
  0.3273903195321158  0.3355125026588764  0.2516189350860732 T T T
  0.6745383215890871  0.3158687218714927  0.2556551772898999 T T T
  0.0084557173932957  0.6772520141974528  0.2458613662559756 T T T
  0.3370546354583694  0.6731953341141453  0.2423921544055192 T T T
  0.6670979062873759  0.6664099949710011  0.2456784740063669 T T T
  0.5857416580883646  0.2636370644575129  0.3404036650594718 T T T
  0.6648452348745472  0.2303717230833477  0.3860747612523669 T T T
  0.8435775715873302  0.5165773958987444  0.2802511503002672 T T T
  0.4216949350544852  0.2920674028592928  0.3445518490060865 T T T
