Rh  N  O                                
   1.00000000000000     
     8.2095097295758173    0.0000000000000000    0.0000000000000000
     0.0000000000000000    8.2095097295758173    0.0000000000000000
     0.0000000000000000    0.0000000000000000   22.7400000000000020
   Rh   N    O 
    36     1     3
Selective dynamics
Direct
  0.1666666666666643  0.1666666666666643  0.0000000000000000   F   F   F
  0.5000000000000000  0.1666666666666643  0.0000000000000000   F   F   F
  0.8333333333333357  0.1666666666666643  0.0000000000000000   F   F   F
  0.1666666666666643  0.5000000000000000  0.0000000000000000   F   F   F
  0.5000000000000000  0.5000000000000000  0.0000000000000000   F   F   F
  0.8333333333333357  0.5000000000000000  0.0000000000000000   F   F   F
  0.1666666666666643  0.8333333333333357  0.0000000000000000   F   F   F
  0.5000000000000000  0.8333333333333357  0.0000000000000000   F   F   F
  0.8333333333333357  0.8333333333333357  0.0000000000000000   F   F   F
  0.0000000000000000  0.0000000000000000  0.0850923482849595   F   F   F
  0.3333333333333357  0.0000000000000000  0.0850923482849595   F   F   F
  0.6666666666666643  0.0000000000000000  0.0850923482849595   F   F   F
  0.0000000000000000  0.3333333333333357  0.0850923482849595   F   F   F
  0.3333333333333357  0.3333333333333357  0.0850923482849595   F   F   F
  0.6666666666666643  0.3333333333333357  0.0850923482849595   F   F   F
  0.0000000000000000  0.6666666666666643  0.0850923482849595   F   F   F
  0.3333333333333357  0.6666666666666643  0.0850923482849595   F   F   F
  0.6666666666666643  0.6666666666666643  0.0850923482849595   F   F   F
  0.1679500732778873  0.1683010389193197  0.1701023782324350   T   T   T
  0.4999684890670159  0.1675746718669394  0.1700070892355650   T   T   T
  0.8317396797172109  0.1684069315765702  0.1701960541507608   T   T   T
  0.1678928978080568  0.4984662761475499  0.1700514480730156   T   T   T
  0.4999735837264739  0.4991866647478475  0.1699954843674017   T   T   T
  0.8317719457637121  0.4982867104243794  0.1701744456109467   T   T   T
  0.1667964862187020  0.8333627779319136  0.1688682400175801   T   T   T
  0.5001105744810812  0.8332829184479017  0.1687960795623598   T   T   T
  0.8333507982130518  0.8333485959410557  0.1688679713800763   T   T   T
  0.0000064858727298  0.9981134257856757  0.2505361371184480   T   T   T
  0.3324604251702632  0.9968149894629199  0.2503404564819097   T   T   T
  0.6675804554934022  0.9968066840285692  0.2503834142898986   T   T   T
 -0.0001506534597814  0.3332865602422820  0.2506154300866477   T   T   T
  0.3311649485144314  0.3331328284558044  0.2547303217743846   T   T   T
  0.6677650881971986  0.3329689674774238  0.2551598446306982   T   T   T
  0.0000422237266286  0.6684580561640703  0.2505226319583737   T   T   T
  0.3324211831082355  0.6698859114453055  0.2502997810237595   T   T   T
  0.6677748687547764  0.6699140482440639  0.2503408016758676   T   T   T
  0.4955428982461952  0.3411083559656418  0.3758185072002010   T   T   T
  0.4942662350893061  0.3481488724374975  0.4301085992869096   T   T   T
  0.6339976535887546  0.3377700268027546  0.3478866309228401   T   T   T
  0.3579458697926112  0.3376519034723656  0.3471588500496598   T   T   T
 
  0.00000000E+00  0.00000000E+00  0.00000000E+00
  0.00000000E+00  0.00000000E+00  0.00000000E+00
  0.00000000E+00  0.00000000E+00  0.00000000E+00
  0.00000000E+00  0.00000000E+00  0.00000000E+00
  0.00000000E+00  0.00000000E+00  0.00000000E+00
  0.00000000E+00  0.00000000E+00  0.00000000E+00
  0.00000000E+00  0.00000000E+00  0.00000000E+00
  0.00000000E+00  0.00000000E+00  0.00000000E+00
  0.00000000E+00  0.00000000E+00  0.00000000E+00
  0.00000000E+00  0.00000000E+00  0.00000000E+00
  0.00000000E+00  0.00000000E+00  0.00000000E+00
  0.00000000E+00  0.00000000E+00  0.00000000E+00
  0.00000000E+00  0.00000000E+00  0.00000000E+00
  0.00000000E+00  0.00000000E+00  0.00000000E+00
  0.00000000E+00  0.00000000E+00  0.00000000E+00
  0.00000000E+00  0.00000000E+00  0.00000000E+00
  0.00000000E+00  0.00000000E+00  0.00000000E+00
  0.00000000E+00  0.00000000E+00  0.00000000E+00
  0.00000000E+00  0.00000000E+00  0.00000000E+00
  0.00000000E+00  0.00000000E+00  0.00000000E+00
  0.00000000E+00  0.00000000E+00  0.00000000E+00
  0.00000000E+00  0.00000000E+00  0.00000000E+00
  0.00000000E+00  0.00000000E+00  0.00000000E+00
  0.00000000E+00  0.00000000E+00  0.00000000E+00
  0.00000000E+00  0.00000000E+00  0.00000000E+00
  0.00000000E+00  0.00000000E+00  0.00000000E+00
  0.00000000E+00  0.00000000E+00  0.00000000E+00
  0.00000000E+00  0.00000000E+00  0.00000000E+00
  0.00000000E+00  0.00000000E+00  0.00000000E+00
  0.00000000E+00  0.00000000E+00  0.00000000E+00
  0.00000000E+00  0.00000000E+00  0.00000000E+00
  0.00000000E+00  0.00000000E+00  0.00000000E+00
  0.00000000E+00  0.00000000E+00  0.00000000E+00
  0.00000000E+00  0.00000000E+00  0.00000000E+00
  0.00000000E+00  0.00000000E+00  0.00000000E+00
  0.00000000E+00  0.00000000E+00  0.00000000E+00
  0.00000000E+00  0.00000000E+00  0.00000000E+00
  0.00000000E+00  0.00000000E+00  0.00000000E+00
  0.00000000E+00  0.00000000E+00  0.00000000E+00
  0.00000000E+00  0.00000000E+00  0.00000000E+00
