Rh   N    O                             
   1.00000000000000     
     8.2095097295758208    0.0000000000000000    0.0000000000000000
     0.0000000000000000    8.2095097295758208    0.0000000000000000
     0.0000000000000000    0.0000000000000000   22.7399999999999984
   Rh   N    O 
    36     1     3
Selective dynamics
Direct
  0.1666666666666639  0.1666666666666639  0.0000000000000000   F   F   F
  0.4999999999999998  0.1666666666666639  0.0000000000000000   F   F   F
  0.8333333333333357  0.1666666666666639  0.0000000000000000   F   F   F
  0.1666666666666639  0.4999999999999998  0.0000000000000000   F   F   F
  0.4999999999999998  0.4999999999999998  0.0000000000000000   F   F   F
  0.8333333333333357  0.4999999999999998  0.0000000000000000   F   F   F
  0.1666666666666639  0.8333333333333357  0.0000000000000000   F   F   F
  0.4999999999999998  0.8333333333333357  0.0000000000000000   F   F   F
  0.8333333333333357  0.8333333333333357  0.0000000000000000   F   F   F
  0.0000000000000000  0.0000000000000000  0.0850923482849595   F   F   F
  0.3333333333333357  0.0000000000000000  0.0850923482849595   F   F   F
  0.6666666666666642  0.0000000000000000  0.0850923482849595   F   F   F
  0.0000000000000000  0.3333333333333357  0.0850923482849595   F   F   F
  0.3333333333333357  0.3333333333333357  0.0850923482849595   F   F   F
  0.6666666666666642  0.3333333333333357  0.0850923482849595   F   F   F
  0.0000000000000000  0.6666666666666642  0.0850923482849595   F   F   F
  0.3333333333333357  0.6666666666666642  0.0850923482849595   F   F   F
  0.6666666666666642  0.6666666666666642  0.0850923482849595   F   F   F
  0.1706631590633293  0.1671304041580925  0.1698596441101532   T   T   T
  0.4997354808642398  0.1698946391504113  0.1712919641794635   T   T   T
  0.8370589456723430  0.1692148915043853  0.1703077324497708   T   T   T
  0.1707666477241276  0.4998002814802044  0.1699379318461749   T   T   T
  0.4996367079780815  0.4971676484075491  0.1712970736005558   T   T   T
  0.8372060905294157  0.4978132935916784  0.1703589624614707   T   T   T
  0.1676747825131506  0.8334290044758841  0.1685399638423902   T   T   T
  0.5011710744089528  0.8334850770758703  0.1682622685410567   T   T   T
  0.8336775241914953  0.8334983977864330  0.1676821526165459   T   T   T
  1.0013091647214296  0.9942663500160370  0.2507549857945034   T   T   T
  0.3362562144199032  0.9944874071897479  0.2514755477402958   T   T   T
  0.6691657883955866  0.9960138448066183  0.2503791583619855   T   T   T
  1.0055790828993301  0.3335525503946628  0.2545669848723477   T   T   T
  0.3581327202685294  0.3325867842859679  0.2726211679524518   T   T   T
  0.6799311905664932  0.3335608833152107  0.2535570010027841   T   T   T
  1.0012739162639432  0.6732439686376127  0.2508073405718548   T   T   T
  0.3364823315733566  0.6729201537780997  0.2514913308848244   T   T   T
  0.6691227605209391  0.6710501688996777  0.2503822801668255   T   T   T
  0.4969717930900332  0.3326191724624758  0.3549858975293242   T   T   T
  0.4597514889477046  0.3328322388636469  0.4071788775353936   T   T   T
  0.6589613463485190  0.3330595637056425  0.3429892927619937   T   T   T
  0.1563558014377700  0.3357686364062510  0.3153163484649417   T   T   T
 
             NaN             NaN             NaN
             NaN             NaN             NaN
             NaN             NaN             NaN
             NaN             NaN             NaN
             NaN             NaN             NaN
             NaN             NaN             NaN
             NaN             NaN             NaN
             NaN             NaN             NaN
             NaN             NaN             NaN
             NaN             NaN             NaN
             NaN             NaN             NaN
             NaN             NaN             NaN
             NaN             NaN             NaN
             NaN             NaN             NaN
             NaN             NaN             NaN
             NaN             NaN             NaN
             NaN             NaN             NaN
             NaN             NaN             NaN
             NaN             NaN             NaN
             NaN             NaN             NaN
             NaN             NaN             NaN
             NaN             NaN             NaN
             NaN             NaN             NaN
             NaN             NaN             NaN
             NaN             NaN             NaN
             NaN             NaN             NaN
             NaN             NaN             NaN
             NaN             NaN             NaN
             NaN             NaN             NaN
             NaN             NaN             NaN
             NaN             NaN             NaN
             NaN             NaN             NaN
             NaN             NaN             NaN
             NaN             NaN             NaN
             NaN             NaN             NaN
             NaN             NaN             NaN
             NaN             NaN             NaN
             NaN             NaN             NaN
             NaN             NaN             NaN
             NaN             NaN             NaN
