Rh  N  O 
 1.0000000000000000
     8.2095097295758173    0.0000000000000000    0.0000000000000000
     0.0000000000000000    8.2095097295758173    0.0000000000000000
     0.0000000000000000    0.0000000000000000   22.7400000000000020
 Rh  N   O  
  36   1   3
Selective dynamics
Cartesian
  1.3682516215959695  1.3682516215959695  0.0000000000000000   F   F   F
  4.1047548647879086  1.3682516215959695  0.0000000000000000   F   F   F
  6.8412581079798471  1.3682516215959695  0.0000000000000000   F   F   F
  1.3682516215959695  4.1047548647879086  0.0000000000000000   F   F   F
  4.1047548647879086  4.1047548647879086  0.0000000000000000   F   F   F
  6.8412581079798471  4.1047548647879086  0.0000000000000000   F   F   F
  1.3682516215959695  6.8412581079798471  0.0000000000000000   F   F   F
  4.1047548647879086  6.8412581079798471  0.0000000000000000   F   F   F
  6.8412581079798471  6.8412581079798471  0.0000000000000000   F   F   F
  0.0000000000000000  0.0000000000000000  1.9350000000000001   F   F   F
  2.7365032431919389  0.0000000000000000  1.9350000000000001   F   F   F
  5.4730064863838779  0.0000000000000000  1.9350000000000001   F   F   F
  0.0000000000000000  2.7365032431919389  1.9350000000000001   F   F   F
  2.7365032431919389  2.7365032431919389  1.9350000000000001   F   F   F
  5.4730064863838779  2.7365032431919389  1.9350000000000001   F   F   F
  0.0000000000000000  5.4730064863838779  1.9350000000000001   F   F   F
  2.7365032431919389  5.4730064863838779  1.9350000000000001   F   F   F
  5.4730064863838779  5.4730064863838779  1.9350000000000001   F   F   F
  1.3682516215959695  1.3682516215959695  3.8700000000000001   T   T   T
  4.1047548647879086  1.3682516215959695  3.8700000000000001   T   T   T
  6.8412581079798471  1.3682516215959695  3.8700000000000001   T   T   T
  1.3682516215959695  4.1047548647879086  3.8700000000000001   T   T   T
  4.1047548647879086  4.1047548647879086  3.8700000000000001   T   T   T
  6.8412581079798471  4.1047548647879086  3.8700000000000001   T   T   T
  1.3682516215959695  6.8412581079798471  3.8700000000000001   T   T   T
  4.1047548647879086  6.8412581079798471  3.8700000000000001   T   T   T
  6.8412581079798471  6.8412581079798471  3.8700000000000001   T   T   T
  0.0000000000000000  0.0000000000000000  5.8049999999999997   T   T   T
  2.7365032431919389  0.0000000000000000  5.8049999999999997   T   T   T
  5.4730064863838779  0.0000000000000000  5.8049999999999997   T   T   T
  0.0000000000000000  2.7365032431919389  5.8049999999999997   T   T   T
  2.7365032431919389  2.7365032431919389  5.8049999999999997   T   T   T
  5.4730064863838779  2.7365032431919389  5.8049999999999997   T   T   T
  0.0000000000000000  5.4730064863838779  5.8049999999999997   T   T   T
  2.7365032431919389  5.4730064863838779  5.8049999999999997   T   T   T
  5.4730064863838779  5.4730064863838779  5.8049999999999997   T   T   T
  4.1000000000000041  2.8000000000000003  8.5049999999999990   T   T   T
  4.1000000000000041  2.8000000000000003  9.7537249999999993   T   T   T
  5.1821420000000042  2.8000000000000003  7.8789609999999985   T   T   T
  3.0178579999999995  2.8000000000000003  7.8789609999999985   T   T   T

