Pd  N  O                                
   1.00000000000000     
     8.4216417639317811    0.0000000000000000    0.0000000000000000
     4.2108208819658905    7.2933557091369128    0.0000000000000000
     0.0000000000000000    0.0000000000000000   24.1683222747312563
   Pd   N    O 
    36     1     3
Selective dynamics
Direct
  0.0000000000000000  0.0000000000000000  0.0000000000000000   F   F   F
  0.3333333333333357  0.0000000000000000  0.0000000000000000   F   F   F
  0.6666666666666643  0.0000000000000000  0.0000000000000000   F   F   F
  0.0000000000000000  0.3333333333333357  0.0000000000000000   F   F   F
  0.3333333333333357  0.3333333333333357  0.0000000000000000   F   F   F
  0.6666666666666643  0.3333333333333357  0.0000000000000000   F   F   F
  0.0000000000000000  0.6666666666666643  0.0000000000000000   F   F   F
  0.3333333333333357  0.6666666666666643  0.0000000000000000   F   F   F
  0.6666666666666643  0.6666666666666643  0.0000000000000000   F   F   F
  0.1111111111111143  0.1111111111111143  0.0948382160179690   F   F   F
  0.4444444444444429  0.1111111111111143  0.0948382160179690   F   F   F
  0.7777777777777786  0.1111111111111143  0.0948382160179690   F   F   F
  0.1111111111111143  0.4444444444444429  0.0948382160179690   F   F   F
  0.4444444444444429  0.4444444444444429  0.0948382160179690   F   F   F
  0.7777777777777786  0.4444444444444429  0.0948382160179690   F   F   F
  0.1111111111111143  0.7777777777777786  0.0948382160179690   F   F   F
  0.4444444444444429  0.7777777777777786  0.0948382160179690   F   F   F
  0.7777777777777786  0.7777777777777786  0.0948382160179690   F   F   F
  0.8872052554450746  0.2251491215125373  0.1892369615049771   T   T   T
  0.2246613990419905  0.2255863375336914  0.1915345528885486   T   T   T
  0.5532726549833857  0.2252440625987762  0.1905733340757783   T   T   T
  0.8890283134155281  0.5576100220286405  0.1894825487041893   T   T   T
  0.2238404308666248  0.5545803864100390  0.1910404239628148   T   T   T
  0.5563095386289574  0.5552701302272015  0.1907045957536699   T   T   T
  0.8900971263721429  0.8886778959534700  0.1889068731416671   T   T   T
  0.2239282541008808  0.8900724569160249  0.1889829756818920   T   T   T
  0.5556043863904694  0.8890472269137539  0.1879625362989787   T   T   T
  0.0007566281146944  0.0040969203354060  0.2833536772618473   T   T   T
  0.3354804611481979  0.0027041406011873  0.2839561815958601   T   T   T
  0.6675989462159974  0.9982527246746268  0.2817391410045247   T   T   T
  0.0004180201149097  0.3322134819049214  0.2841821773060054   T   T   T
  0.3423991917839831  0.3197994056653459  0.3040114101303422   T   T   T
  0.6721003458067976  0.3333840122781834  0.2871193737086704   T   T   T
  0.9934541333580067  0.6678686565163306  0.2859018984752730   T   T   T
  0.3364393588456819  0.6755318095062232  0.2859549300406154   T   T   T
  0.6671988208618441  0.6697577735392368  0.2840245314285477   T   T   T
  0.4918032182803940  0.2501056760326641  0.3772439630301161   T   T   T
  0.4440517328458427  0.2009985942872195  0.4199206921283526   T   T   T
  0.6216152017125097  0.2870236555387213  0.3787429027372216   T   T   T
  0.2068974757890855  0.5876079098599727  0.3349766589493258   T   T   T
 
  0.00000000E+00  0.00000000E+00  0.00000000E+00
  0.00000000E+00  0.00000000E+00  0.00000000E+00
  0.00000000E+00  0.00000000E+00  0.00000000E+00
  0.00000000E+00  0.00000000E+00  0.00000000E+00
  0.00000000E+00  0.00000000E+00  0.00000000E+00
  0.00000000E+00  0.00000000E+00  0.00000000E+00
  0.00000000E+00  0.00000000E+00  0.00000000E+00
  0.00000000E+00  0.00000000E+00  0.00000000E+00
  0.00000000E+00  0.00000000E+00  0.00000000E+00
  0.00000000E+00  0.00000000E+00  0.00000000E+00
  0.00000000E+00  0.00000000E+00  0.00000000E+00
  0.00000000E+00  0.00000000E+00  0.00000000E+00
  0.00000000E+00  0.00000000E+00  0.00000000E+00
  0.00000000E+00  0.00000000E+00  0.00000000E+00
  0.00000000E+00  0.00000000E+00  0.00000000E+00
  0.00000000E+00  0.00000000E+00  0.00000000E+00
  0.00000000E+00  0.00000000E+00  0.00000000E+00
  0.00000000E+00  0.00000000E+00  0.00000000E+00
  0.00000000E+00  0.00000000E+00  0.00000000E+00
  0.00000000E+00  0.00000000E+00  0.00000000E+00
  0.00000000E+00  0.00000000E+00  0.00000000E+00
  0.00000000E+00  0.00000000E+00  0.00000000E+00
  0.00000000E+00  0.00000000E+00  0.00000000E+00
  0.00000000E+00  0.00000000E+00  0.00000000E+00
  0.00000000E+00  0.00000000E+00  0.00000000E+00
  0.00000000E+00  0.00000000E+00  0.00000000E+00
  0.00000000E+00  0.00000000E+00  0.00000000E+00
  0.00000000E+00  0.00000000E+00  0.00000000E+00
  0.00000000E+00  0.00000000E+00  0.00000000E+00
  0.00000000E+00  0.00000000E+00  0.00000000E+00
  0.00000000E+00  0.00000000E+00  0.00000000E+00
  0.00000000E+00  0.00000000E+00  0.00000000E+00
  0.00000000E+00  0.00000000E+00  0.00000000E+00
  0.00000000E+00  0.00000000E+00  0.00000000E+00
  0.00000000E+00  0.00000000E+00  0.00000000E+00
  0.00000000E+00  0.00000000E+00  0.00000000E+00
  0.00000000E+00  0.00000000E+00  0.00000000E+00
  0.00000000E+00  0.00000000E+00  0.00000000E+00
  0.00000000E+00  0.00000000E+00  0.00000000E+00
  0.00000000E+00  0.00000000E+00  0.00000000E+00
