Cu  N  O                                
   1.00000000000000     
     7.8488852711706780    0.0000000000000000    0.0000000000000000
     0.0000000000000000    7.8488852711706780    0.0000000000000000
     0.0000000000000000    0.0000000000000000   22.3999999999999986
   Cu   N    O 
    36     1     3
Selective dynamics
Direct
  0.1666666666666643  0.1666666666666643  0.0000000000000000   F   F   F
  0.5000000000000000  0.1666666666666643  0.0000000000000000   F   F   F
  0.8333333333333357  0.1666666666666643  0.0000000000000000   F   F   F
  0.1666666666666643  0.5000000000000000  0.0000000000000000   F   F   F
  0.5000000000000000  0.5000000000000000  0.0000000000000000   F   F   F
  0.8333333333333357  0.5000000000000000  0.0000000000000000   F   F   F
  0.1666666666666643  0.8333333333333357  0.0000000000000000   F   F   F
  0.5000000000000000  0.8333333333333357  0.0000000000000000   F   F   F
  0.8333333333333357  0.8333333333333357  0.0000000000000000   F   F   F
  0.0000000000000000  0.0000000000000000  0.0825892857142847   F   F   F
  0.3333333333333357  0.0000000000000000  0.0825892857142847   F   F   F
  0.6666666666666643  0.0000000000000000  0.0825892857142847   F   F   F
  0.0000000000000000  0.3333333333333357  0.0825892857142847   F   F   F
  0.3333333333333357  0.3333333333333357  0.0825892857142847   F   F   F
  0.6666666666666643  0.3333333333333357  0.0825892857142847   F   F   F
  0.0000000000000000  0.6666666666666643  0.0825892857142847   F   F   F
  0.3333333333333357  0.6666666666666643  0.0825892857142847   F   F   F
  0.6666666666666643  0.6666666666666643  0.0825892857142847   F   F   F
  0.1691779984316726  0.1686042017177255  0.1652676053725948   T   T   T
  0.4999092376160079  0.1699487206006482  0.1657297514743629   T   T   T
  0.8305076294507989  0.1686155964840589  0.1653074910082656   T   T   T
  0.1692049332548260  0.4980431997308389  0.1652781674760724   T   T   T
  0.4999095223878644  0.4966366639390214  0.1657499272988482   T   T   T
  0.8304767638701464  0.4980201672348362  0.1653200718543959   T   T   T
  0.1658891133467804  0.8333188098738492  0.1639986904179264   T   T   T
  0.5000294053237986  0.8333269689288731  0.1640423392007253   T   T   T
  0.8340650634271425  0.8333185395701731  0.1640097601558198   T   T   T
 -0.0000445540182755 -0.0003100991055748  0.2430667094050155   T   T   T
  0.3329771072493896 -0.0034536480711967  0.2428054766222913   T   T   T
  0.6669684340092772 -0.0034289058267916  0.2428568397002654   T   T   T
 -0.0004826124084802  0.3333474058993753  0.2426671998831504   T   T   T
  0.3311346244113662  0.3333608420473335  0.2493190946969931   T   T   T
  0.6678502220804623  0.3333553796633123  0.2495564888481567   T   T   T
 -0.0000405897147871  0.6669509081529146  0.2430861805394238   T   T   T
  0.3330206506859922  0.6700346798386265  0.2428244148355284   T   T   T
  0.6669404721510904  0.6700088236197794  0.2428716727342095   T   T   T
  0.4976569043902891  0.3313058383410325  0.3692573908739544   T   T   T
  0.4971543315972564  0.3305650409124700  0.4240841848080312   T   T   T
  0.6418559469296268  0.3315216450160866  0.3400091403565540   T   T   T
  0.3538965185143818  0.3317926205487201  0.3397176152299401   T   T   T
 
  0.00000000E+00  0.00000000E+00  0.00000000E+00
  0.00000000E+00  0.00000000E+00  0.00000000E+00
  0.00000000E+00  0.00000000E+00  0.00000000E+00
  0.00000000E+00  0.00000000E+00  0.00000000E+00
  0.00000000E+00  0.00000000E+00  0.00000000E+00
  0.00000000E+00  0.00000000E+00  0.00000000E+00
  0.00000000E+00  0.00000000E+00  0.00000000E+00
  0.00000000E+00  0.00000000E+00  0.00000000E+00
  0.00000000E+00  0.00000000E+00  0.00000000E+00
  0.00000000E+00  0.00000000E+00  0.00000000E+00
  0.00000000E+00  0.00000000E+00  0.00000000E+00
  0.00000000E+00  0.00000000E+00  0.00000000E+00
  0.00000000E+00  0.00000000E+00  0.00000000E+00
  0.00000000E+00  0.00000000E+00  0.00000000E+00
  0.00000000E+00  0.00000000E+00  0.00000000E+00
  0.00000000E+00  0.00000000E+00  0.00000000E+00
  0.00000000E+00  0.00000000E+00  0.00000000E+00
  0.00000000E+00  0.00000000E+00  0.00000000E+00
  0.00000000E+00  0.00000000E+00  0.00000000E+00
  0.00000000E+00  0.00000000E+00  0.00000000E+00
  0.00000000E+00  0.00000000E+00  0.00000000E+00
  0.00000000E+00  0.00000000E+00  0.00000000E+00
  0.00000000E+00  0.00000000E+00  0.00000000E+00
  0.00000000E+00  0.00000000E+00  0.00000000E+00
  0.00000000E+00  0.00000000E+00  0.00000000E+00
  0.00000000E+00  0.00000000E+00  0.00000000E+00
  0.00000000E+00  0.00000000E+00  0.00000000E+00
  0.00000000E+00  0.00000000E+00  0.00000000E+00
  0.00000000E+00  0.00000000E+00  0.00000000E+00
  0.00000000E+00  0.00000000E+00  0.00000000E+00
  0.00000000E+00  0.00000000E+00  0.00000000E+00
  0.00000000E+00  0.00000000E+00  0.00000000E+00
  0.00000000E+00  0.00000000E+00  0.00000000E+00
  0.00000000E+00  0.00000000E+00  0.00000000E+00
  0.00000000E+00  0.00000000E+00  0.00000000E+00
  0.00000000E+00  0.00000000E+00  0.00000000E+00
  0.00000000E+00  0.00000000E+00  0.00000000E+00
  0.00000000E+00  0.00000000E+00  0.00000000E+00
  0.00000000E+00  0.00000000E+00  0.00000000E+00
  0.00000000E+00  0.00000000E+00  0.00000000E+00
