Cu   Pd   Cu   N    O 
   1.00000000000000     
   7.8488852711706798   0.0000000000000000   0.0000000000000000
   0.0000000000000000   7.8488852711706798   0.0000000000000000
   0.0000000000000000   0.0000000000000000  22.3999999999999986
Cu   Pd   Cu   N    O 
31  1  4  1  3  
Selective dynamics
Direct
  0.1666666666666643  0.1666666666666643  0.0000000000000000 F F F
  0.5000000000000000  0.1666666666666643  0.0000000000000000 F F F
  0.8333333333333357  0.1666666666666643  0.0000000000000000 F F F
  0.1666666666666643  0.5000000000000000  0.0000000000000000 F F F
  0.5000000000000000  0.5000000000000000  0.0000000000000000 F F F
  0.8333333333333357  0.5000000000000000  0.0000000000000000 F F F
  0.1666666666666643  0.8333333333333357  0.0000000000000000 F F F
  0.5000000000000000  0.8333333333333357  0.0000000000000000 F F F
  0.8333333333333357  0.8333333333333357  0.0000000000000000 F F F
  0.0000000000000000  0.0000000000000000  0.0825892857142847 F F F
  0.3333333333333357  0.0000000000000000  0.0825892857142847 F F F
  0.6666666666666643  0.0000000000000000  0.0825892857142847 F F F
  0.0000000000000000  0.3333333333333357  0.0825892857142847 F F F
  0.3333333333333357  0.3333333333333357  0.0825892857142847 F F F
  0.6666666666666643  0.3333333333333357  0.0825892857142847 F F F
  0.0000000000000000  0.6666666666666643  0.0825892857142847 F F F
  0.3333333333333357  0.6666666666666643  0.0825892857142847 F F F
  0.6666666666666643  0.6666666666666643  0.0825892857142847 F F F
  0.1698552275120766  0.1702911604224802  0.1643005318142020 T T T
  0.5044781366113926  0.1652944721612905  0.1645044317569460 T T T
  0.8361071004649961  0.1758410271890408  0.1655465460641939 T T T
  0.1692767412036029  0.4975952956547217  0.1619044201839164 T T T
  0.4987700212173127  0.4947863193126480  0.1654906806830841 T T T
  0.8321171814650928  0.5022946302394982  0.1652055043500100 T T T
  0.1633025750611008  0.8322422502805517  0.1641227746613878 T T T
  0.4946286049091551  0.8276864220546961  0.1641242909352563 T T T
  0.8326866030489831  0.8359779743309805  0.1636679254416819 T T T
  0.0008292669802925  0.0127862125517685  0.2418616564656033 T T T
  0.3366830525126130  0.9876901797805244  0.2422088064132434 T T T
  0.6705766989447863  0.9955567485595186  0.2415629688257658 T T T
  0.0065442954958457  0.3463346789436160  0.2471827380478716 T T T
  0.3433021857868820  0.3136174983607929  0.2542009782240696 T T T
  0.6836352772628308  0.3339249528635637  0.2487084932087822 T T T
  0.9808618746048380  0.6870699993003514  0.2475083184960011 T T T
  0.3230853352233344  0.6635055966921527  0.2469897770702182 T T T
  0.6559228185499046  0.6716337647161914  0.2417497302971318 T T T
  0.4628064984380570  0.2946870780812732  0.3410864212559308 T T T
  0.3950661679738830  0.2773756195890149  0.3897731885632579 T T T
  0.6281209815565195  0.3188374582934380  0.3386787569938383 T T T
  0.1386286209688776  0.5332485371567041  0.2851698855467751 T T T
