Cu Ni Cu  N  O 
 1.0000000000000000
     7.8488852711706798    0.0000000000000000    0.0000000000000000
     3.9244426355853399    6.7973340362233197    0.0000000000000000
     0.0000000000000000    0.0000000000000000   23.5447839840065001
 Cu  Ni  Cu  N   O  
  31   1   4   1   3
Selective dynamics
Cartesian
  0.0000000000000000  0.0000000000000000  0.0000000000000000   F   F   F
  2.6162950903902451  0.0000000000000000  0.0000000000000000   F   F   F
  5.2325901807804334  0.0000000000000000  0.0000000000000000   F   F   F
  1.3081475451951230  2.2657780120744566  0.0000000000000000   F   F   F
  3.9244426355853674  2.2657780120744566  0.0000000000000000   F   F   F
  6.5407377259755561  2.2657780120744566  0.0000000000000000   F   F   F
 10.4651803615604511  4.5315560241488635  0.0000000000000000   F   F   F
  5.2325901807804627  4.5315560241488635  0.0000000000000000   F   F   F
  7.8488852711706505  4.5315560241488635  0.0000000000000000   F   F   F
  1.3081475451951508  0.7552593373581683  2.1361959960016681   F   F   F
  3.9244426355853403  0.7552593373581683  2.1361959960016681   F   F   F
  6.5407377259755854  0.7552593373581683  2.1361959960016681   F   F   F
  2.6162950903902447  3.0210373494325760  2.1361959960016681   F   F   F
  5.2325901807804343  3.0210373494325760  2.1361959960016681   F   F   F
  7.8488852711706789  3.0210373494325760  2.1361959960016681   F   F   F
  3.9244426355853674  5.2868153615070321  2.1361959960016681   F   F   F
  6.5407377259755570  5.2868153615070321  2.1361959960016681   F   F   F
  9.1570328163658026  5.2868153615070321  2.1361959960016681   F   F   F
  7.8240783929706996  1.5237762639606043  4.2587729707712807   F   F   F
  2.6239285118584563  1.5170850342733193  4.2264698903295299   F   F   F
  5.2337294312069194  1.5232579784466298  4.2575289473573843   F   F   F
  9.1560500791816093  3.7763244265576055  4.2209220931450622   F   F   F
  3.9164942415274906  3.7525990415718571  4.2385502490070648   F   F   F
  6.5316479383497930  3.7622113616534714  4.2503554964611991   F   F   F
 10.4489514296105135  6.0508200343428538  4.2338585867594594   F   F   F
  5.2217230834526669  6.0420298050637307  4.2089008190573720   F   F   F
  7.8423292253490029  6.0507757448859874  4.2225623436298854   F   F   F
 11.7662848898734556  6.7868276738369708  6.2979494728610828   F   F   F
  6.4855025540572324  6.7719750871488191  6.2680017300511359   F   F   F
  9.1505706502968422  6.7660427427079810  6.3057875074011758   F   F   F
  1.3195465485358675  2.2749250645379981  6.2898271244134198   F   F   F
  3.9109297555268743  2.2703401413320545  6.2936451570319329   F   F   F
  6.5537282936538137  2.2920303502703496  6.4185375158879276   F   F   F
  2.6191842048400278  4.5211450922662300  6.3059007715218138   F   F   F
  5.2070553701376685  4.5419848554033946  6.2914687557601976   F   F   F
  7.8565244948587338  4.5377972692516115  6.2859077496663378   F   F   F
  5.1094727600871650  1.7249666876304974  8.9764864600162841   T   T   T
  4.8292107674223184  1.5241023168067043 10.1509681430064234   T   T   T
  6.2061900218369281  2.2511792385977110  8.5797046373431236   T   T   T
  4.2093654421863311  1.3354026087542457  8.0317143690823709   T   T   T
