Ni   N    O 
   1.00000000000000     
   7.5306872196367305   0.0000000000000000   0.0000000000000000
   3.7653436098183701   6.5217664401602100   0.0000000000000000
   0.0000000000000000   0.0000000000000000  23.1983738224927016
Ni   N    O 
36  1  3  
Selective dynamics
Direct
  0.0000000000000000  0.0000000000000000  0.0000000000000000 F F F
  0.3333333333333357  0.0000000000000000  0.0000000000000000 F F F
  0.6666666666666643  0.0000000000000000  0.0000000000000000 F F F
  0.0000000000000000  0.3333333333333357  0.0000000000000000 F F F
  0.3333333333333357  0.3333333333333357  0.0000000000000000 F F F
  0.6666666666666643  0.3333333333333357  0.0000000000000000 F F F
  0.0000000000000000  0.6666666666666643  0.0000000000000000 F F F
  0.3333333333333357  0.6666666666666643  0.0000000000000000 F F F
  0.6666666666666643  0.6666666666666643  0.0000000000000000 F F F
  0.1111111111111143  0.1111111111111143  0.0883507383451132 F F F
  0.4444444444444429  0.1111111111111143  0.0883507383451132 F F F
  0.7777777777777786  0.1111111111111143  0.0883507383451132 F F F
  0.1111111111111143  0.4444444444444429  0.0883507383451132 F F F
  0.4444444444444429  0.4444444444444429  0.0883507383451132 F F F
  0.7777777777777786  0.4444444444444429  0.0883507383451132 F F F
  0.1111111111111143  0.7777777777777786  0.0883507383451132 F F F
  0.4444444444444429  0.7777777777777786  0.0883507383451132 F F F
  0.7777777777777786  0.7777777777777786  0.0883507383451132 F F F
  0.8886460130472088  0.2232086721429088  0.1771319007133256 T T T
  0.2242962731044301  0.2239994275488130  0.1776296803757814 T T T
  0.5536057538819150  0.2248640912390884  0.1779931686711911 T T T
  0.8905543396237341  0.5546807829693222  0.1756165067091008 T T T
  0.2240018633024724  0.5522134222588739  0.1774359806781857 T T T
  0.5580827528558149  0.5523124353851823  0.1762430504327710 T T T
  0.8903399077242008  0.8876879116091647  0.1761859054582573 T T T
  0.2230339435899110  0.8885775978811778  0.1752946364308284 T T T
  0.5567078487490067  0.8890300427029421  0.1751896858625413 T T T
  0.0039268895846506  0.9976655478385380  0.2618085982949783 T T T
  0.3372482695553231  0.9938004798678740  0.2622709383135872 T T T
  0.6695384471030985  0.9963236826526451  0.2615323612818248 T T T
  0.9994390547419550  0.3302521371312594  0.2654028694956347 T T T
  0.3432727819357443  0.3251134014126182  0.2817205894089452 T T T
  0.6719129579563451  0.3333360730123430  0.2670470541155010 T T T
  0.9976977534911952  0.6729364919417142  0.2660696818243360 T T T
  0.3355716464840678  0.6708410099136508  0.2617821438104646 T T T
  0.6614485893502458  0.6718399152536383  0.2620172304349790 T T T
  0.4843771289313057  0.2820637975579183  0.3555240091089960 T T T
  0.4375050192885506  0.2467323790299586  0.4025489604348399 T T T
  0.6396688154198239  0.3169907504709752  0.3515305172156081 T T T
  0.0788117355181763  0.4612708131045441  0.3164137228495871 T T T
