Pd   N    O 
   1.00000000000000     
   8.4216417639317793   0.0000000000000000   0.0000000000000000
   4.2108208819658897   7.2933557091369101   0.0000000000000000
   0.0000000000000000   0.0000000000000000  24.1683222747312989
Pd   N    O 
36  1  3  
Selective dynamics
Direct
  0.0000000000000000  0.0000000000000000  0.0000000000000000 F F F
  0.3333333333333360  0.0000000000000000  0.0000000000000000 F F F
  0.6666666666666640  0.0000000000000000  0.0000000000000000 F F F
  0.0000000000000000  0.3333333333333360  0.0000000000000000 F F F
  0.3333333333333360  0.3333333333333360  0.0000000000000000 F F F
  0.6666666666666640  0.3333333333333360  0.0000000000000000 F F F
  0.0000000000000000  0.6666666666666640  0.0000000000000000 F F F
  0.3333333333333360  0.6666666666666640  0.0000000000000000 F F F
  0.6666666666666640  0.6666666666666640  0.0000000000000000 F F F
  0.1111111111111140  0.1111111111111140  0.0948382160179690 F F F
  0.4444444444444430  0.1111111111111140  0.0948382160179690 F F F
  0.7777777777777790  0.1111111111111140  0.0948382160179690 F F F
  0.1111111111111140  0.4444444444444430  0.0948382160179690 F F F
  0.4444444444444430  0.4444444444444430  0.0948382160179690 F F F
  0.7777777777777790  0.4444444444444430  0.0948382160179690 F F F
  0.1111111111111140  0.7777777777777790  0.0948382160179690 F F F
  0.4444444444444430  0.7777777777777790  0.0948382160179690 F F F
  0.7777777777777790  0.7777777777777790  0.0948382160179690 F F F
  0.8862745817555930  0.2227127265342970  0.1903399743478860 T T T
  0.2232878850498990  0.2219904083983980  0.1906747583318240 T T T
  0.5553380966246450  0.2222749598515040  0.1899926414458190 T T T
  0.8881060073692740  0.5545956388600640  0.1890666795240820 T T T
  0.2212368903472280  0.5554139897631880  0.1888617996290800 T T T
  0.5553155246514340  0.5536592578390870  0.1901683361682490 T T T
  0.8880033333703991  0.8888029672712610  0.1889310230067880 T T T
  0.2226280901517510  0.8872785832425411  0.1900483711988130 T T T
  0.5550164359060260  0.8878972451976420  0.1890494665204660 T T T
  0.9966927991482210  0.0000760714435089  0.2849267626620100 T T T
  0.3305355982876610  0.9988840494537140  0.2852793526738960 T T T
  0.6638633803107650  0.9979241257545510  0.2841264534770930 T T T
  0.9960287541825960  0.3324805584890380  0.2850330974507290 T T T
  0.3261655753881100  0.3316700977753090  0.2854331816635420 T T T
  0.6659908213678351  0.3315466819824100  0.2885407219986010 T T T
  0.9925490577746880  0.6687590592088740  0.2837760593353100 T T T
  0.3267069239299470  0.6719291174198569  0.2852989336619560 T T T
  0.6636576647024980  0.6672522434273490  0.2844414678212890 T T T
  0.4513724581763090  0.4178480803793080  0.4021981688351130 T T T
  0.4056852920885420  0.4307733882622810  0.4504683152657170 T T T
  0.6173993784403320  0.3437788180073720  0.3859086932319120 T T T
  0.3102279389135130  0.4921526308686450  0.3604583350026120 T T T
