Pd   N    O 
   1.00000000000000     
   8.4216417639317793   0.0000000000000000   0.0000000000000000
   0.0000000000000000   8.4216417639317793   0.0000000000000000
   0.0000000000000000   0.0000000000000000  22.9400000000000013
Pd   N    O 
36  1  3  
Selective dynamics
Direct
  0.1666666666666643  0.1666666666666643  0.0000000000000000 F F F
  0.5000000000000000  0.1666666666666643  0.0000000000000000 F F F
  0.8333333333333356  0.1666666666666643  0.0000000000000000 F F F
  0.1666666666666643  0.5000000000000000  0.0000000000000000 F F F
  0.5000000000000000  0.5000000000000000  0.0000000000000000 F F F
  0.8333333333333356  0.5000000000000000  0.0000000000000000 F F F
  0.1666666666666643  0.8333333333333356  0.0000000000000000 F F F
  0.5000000000000000  0.8333333333333356  0.0000000000000000 F F F
  0.8333333333333356  0.8333333333333356  0.0000000000000000 F F F
  0.0000000000000000  0.0000000000000000  0.0865300784655645 F F F
  0.3333333333333357  0.0000000000000000  0.0865300784655645 F F F
  0.6666666666666643  0.0000000000000000  0.0865300784655645 F F F
  0.0000000000000000  0.3333333333333357  0.0865300784655645 F F F
  0.3333333333333357  0.3333333333333357  0.0865300784655645 F F F
  0.6666666666666643  0.3333333333333357  0.0865300784655645 F F F
  0.0000000000000000  0.6666666666666643  0.0865300784655645 F F F
  0.3333333333333357  0.6666666666666643  0.0865300784655645 F F F
  0.6666666666666643  0.6666666666666643  0.0865300784655645 F F F
  0.1680816545664250  0.1685767101794432  0.1737376652801822 T T T
  0.4983717475401404  0.1696790313915011  0.1745178552488628 T T T
  0.8313654844479403  0.1683788384981554  0.1737607880112307 T T T
  0.1680805769408071  0.4980891977149445  0.1737373131624929 T T T
  0.4983707300913516  0.4969880092767052  0.1745179196699472 T T T
  0.8313657786114689  0.4982884537299170  0.1737614473745303 T T T
  0.1668767267281926  0.8333330229731226  0.1719331941095589 T T T
  0.5006178792997865  0.8333334959965010  0.1720967993461887 T T T
  0.8332295293457544  0.8333334912851540  0.1720410815107298 T T T
  0.9993687385235605  0.9963511564687884  0.2581302066619210 T T T
  0.3341824815696954  0.9962286543104364  0.2580699470937103 T T T
  0.6661495695253026  0.9976222769018566  0.2588105428132210 T T T
  0.9858821883443046  0.3333331291545846  0.2592989100456797 T T T
  0.3374422898408461  0.3333346834466766  0.2727674627681549 T T T
  0.6616062332324473  0.3333334407221764  0.2635984180743554 T T T
  0.9993683871383056  0.6703153244920718  0.2581298123284068 T T T
  0.3341807450251877  0.6704384484526495  0.2580696908405546 T T T
  0.6661491312014211  0.6690438468167965  0.2588106482254353 T T T
  0.4143777568951903  0.3333333743125032  0.3864596385692197 T T T
  0.3312201618011016  0.3333327776681252  0.4302232079757586 T T T
  0.5618018015318215  0.3333335480876768  0.3847176875354331 T T T
  0.1447073657394537  0.3333330565932963  0.3175661002831036 T T T
