Rh   N    O                             
   1.00000000000000     
     8.2095097295758208    0.0000000000000000    0.0000000000000000
     0.0000000000000000    8.2095097295758208    0.0000000000000000
     0.0000000000000000    0.0000000000000000   22.7399999999999984
   Rh   N    O 
    36     1     3
Selective dynamics
Direct
  0.1666666666666643  0.1666666666666643  0.0000000000000000   F   F   F
  0.5000000000000000  0.1666666666666643  0.0000000000000000   F   F   F
  0.8333333333333357  0.1666666666666643  0.0000000000000000   F   F   F
  0.1666666666666643  0.5000000000000000  0.0000000000000000   F   F   F
  0.5000000000000000  0.5000000000000000  0.0000000000000000   F   F   F
  0.8333333333333357  0.5000000000000000  0.0000000000000000   F   F   F
  0.1666666666666643  0.8333333333333357  0.0000000000000000   F   F   F
  0.5000000000000000  0.8333333333333357  0.0000000000000000   F   F   F
  0.8333333333333357  0.8333333333333357  0.0000000000000000   F   F   F
  0.0000000000000000  0.0000000000000000  0.0850923482849595   F   F   F
  0.3333333333333357  0.0000000000000000  0.0850923482849595   F   F   F
  0.6666666666666643  0.0000000000000000  0.0850923482849595   F   F   F
  0.0000000000000000  0.3333333333333357  0.0850923482849595   F   F   F
  0.3333333333333357  0.3333333333333357  0.0850923482849595   F   F   F
  0.6666666666666643  0.3333333333333357  0.0850923482849595   F   F   F
  0.0000000000000000  0.6666666666666643  0.0850923482849595   F   F   F
  0.3333333333333357  0.6666666666666643  0.0850923482849595   F   F   F
  0.6666666666666643  0.6666666666666643  0.0850923482849595   F   F   F
  0.1675317377110801  0.1691832218844880  0.1701231041385327   T   T   T
  0.4994705574228746  0.1688883494240159  0.1703191049603845   T   T   T
  0.8309948148487081  0.1675227098148966  0.1696070812036936   T   T   T
  0.1675300801522397  0.4974816719403918  0.1701226466505688   T   T   T
  0.4994702083679670  0.4977781287251588  0.1703181457619323   T   T   T
  0.8309887925471031  0.4991336024355633  0.1696086076918135   T   T   T
  0.1662339988705241  0.8333329812671622  0.1686665665330480   T   T   T
  0.4998869361437599  0.8333358327181273  0.1685322279728894   T   T   T
  0.8328397973152875  0.8333344605491391  0.1684107009822640   T   T   T
  0.9983879898536117  0.9974384219521326  0.2501762388464499   T   T   T
  0.3319693232567431  0.9947484696382531  0.2503769756715997   T   T   T
  0.6671495275244794  0.9964867133357842  0.2501279151658906   T   T   T
  0.9945623062966220  0.3333336308248676  0.2504644562539013   T   T   T
  0.3258941928347667  0.3333326144513578  0.2561975315921003   T   T   T
  0.6705542373149811  0.3333494387830811  0.2554408362924789   T   T   T
  0.9983859684436496  0.6692298484607306  0.2501754964757836   T   T   T
  0.3319690136807125  0.6719263705171699  0.2503778112311963   T   T   T
  0.6671522086722632  0.6701739810803673  0.2501272802159065   T   T   T
  0.5272872874763834  0.3334293338627248  0.3801795952147344   T   T   T
  0.5180552516537702  0.3334028473020254  0.4331523095884080   T   T   T
  0.6594800365428881  0.3331121689807475  0.3510472459877647   T   T   T
  0.3259939558268030  0.3335063234939284  0.3353423238767377   T   T   T
 
  0.00000000E+00  0.00000000E+00  0.00000000E+00
  0.00000000E+00  0.00000000E+00  0.00000000E+00
  0.00000000E+00  0.00000000E+00  0.00000000E+00
  0.00000000E+00  0.00000000E+00  0.00000000E+00
  0.00000000E+00  0.00000000E+00  0.00000000E+00
  0.00000000E+00  0.00000000E+00  0.00000000E+00
  0.00000000E+00  0.00000000E+00  0.00000000E+00
  0.00000000E+00  0.00000000E+00  0.00000000E+00
  0.00000000E+00  0.00000000E+00  0.00000000E+00
  0.00000000E+00  0.00000000E+00  0.00000000E+00
  0.00000000E+00  0.00000000E+00  0.00000000E+00
  0.00000000E+00  0.00000000E+00  0.00000000E+00
  0.00000000E+00  0.00000000E+00  0.00000000E+00
  0.00000000E+00  0.00000000E+00  0.00000000E+00
  0.00000000E+00  0.00000000E+00  0.00000000E+00
  0.00000000E+00  0.00000000E+00  0.00000000E+00
  0.00000000E+00  0.00000000E+00  0.00000000E+00
  0.00000000E+00  0.00000000E+00  0.00000000E+00
  0.00000000E+00  0.00000000E+00  0.00000000E+00
  0.00000000E+00  0.00000000E+00  0.00000000E+00
  0.00000000E+00  0.00000000E+00  0.00000000E+00
  0.00000000E+00  0.00000000E+00  0.00000000E+00
  0.00000000E+00  0.00000000E+00  0.00000000E+00
  0.00000000E+00  0.00000000E+00  0.00000000E+00
  0.00000000E+00  0.00000000E+00  0.00000000E+00
  0.00000000E+00  0.00000000E+00  0.00000000E+00
  0.00000000E+00  0.00000000E+00  0.00000000E+00
  0.00000000E+00  0.00000000E+00  0.00000000E+00
  0.00000000E+00  0.00000000E+00  0.00000000E+00
  0.00000000E+00  0.00000000E+00  0.00000000E+00
  0.00000000E+00  0.00000000E+00  0.00000000E+00
  0.00000000E+00  0.00000000E+00  0.00000000E+00
  0.00000000E+00  0.00000000E+00  0.00000000E+00
  0.00000000E+00  0.00000000E+00  0.00000000E+00
  0.00000000E+00  0.00000000E+00  0.00000000E+00
  0.00000000E+00  0.00000000E+00  0.00000000E+00
  0.00000000E+00  0.00000000E+00  0.00000000E+00
  0.00000000E+00  0.00000000E+00  0.00000000E+00
  0.00000000E+00  0.00000000E+00  0.00000000E+00
  0.00000000E+00  0.00000000E+00  0.00000000E+00
