Ni  N  O                                
   1.00000000000000     
     7.5306872196367305    0.0000000000000000    0.0000000000000000
     0.0000000000000000    7.5306872196367305    0.0000000000000000
     0.0000000000000000    0.0000000000000000   22.1000000000000014
   Ni   N    O 
    36     1     3
Selective dynamics
Direct
  0.1666666666666643  0.1666666666666643  0.0000000000000000   F   F   F
  0.5000000000000000  0.1666666666666643  0.0000000000000000   F   F   F
  0.8333333333333357  0.1666666666666643  0.0000000000000000   F   F   F
  0.1666666666666643  0.5000000000000000  0.0000000000000000   F   F   F
  0.5000000000000000  0.5000000000000000  0.0000000000000000   F   F   F
  0.8333333333333357  0.5000000000000000  0.0000000000000000   F   F   F
  0.1666666666666643  0.8333333333333357  0.0000000000000000   F   F   F
  0.5000000000000000  0.8333333333333357  0.0000000000000000   F   F   F
  0.8333333333333357  0.8333333333333357  0.0000000000000000   F   F   F
  0.0000000000000000  0.0000000000000000  0.0803167420814503   F   F   F
  0.3333333333333357  0.0000000000000000  0.0803167420814503   F   F   F
  0.6666666666666643  0.0000000000000000  0.0803167420814503   F   F   F
  0.0000000000000000  0.3333333333333357  0.0803167420814503   F   F   F
  0.3333333333333357  0.3333333333333357  0.0803167420814503   F   F   F
  0.6666666666666643  0.3333333333333357  0.0803167420814503   F   F   F
  0.0000000000000000  0.6666666666666643  0.0803167420814503   F   F   F
  0.3333333333333357  0.6666666666666643  0.0803167420814503   F   F   F
  0.6666666666666643  0.6666666666666643  0.0803167420814503   F   F   F
  0.1690269446070549  0.1684899226811457  0.1614533814488034   T   T   T
  0.5000926338357207  0.1698055986016490  0.1621768491468005   T   T   T
  0.8310622558407242  0.1685541351616670  0.1614625638562217   T   T   T
  0.1690446607917960  0.4982592678601748  0.1614472784606107   T   T   T
  0.5000741673801712  0.4968873213083577  0.1621723627725979   T   T   T
  0.8310454401364480  0.4982278867045879  0.1614538119675767   T   T   T
  0.1663978152134626  0.8333452100321835  0.1604881944226010   T   T   T
  0.5000056218981578  0.8333595947458586  0.1605041613136457   T   T   T
  0.8336040654885597  0.8333519615776667  0.1604855048449827   T   T   T
 -0.0000129737828575  0.9995593637887259  0.2386328173548167   T   T   T
  0.3327683921755872  0.9971532109703266  0.2384420981138129   T   T   T
  0.6672786410794014  0.9971950715675929  0.2384370934753124   T   T   T
  0.0002118553267155  0.3334458012342116  0.2382581672689320   T   T   T
  0.3309623338169772  0.3333648268468033  0.2457048643514575   T   T   T
  0.6695637104600743  0.3333863379827535  0.2458643015188162   T   T   T
  0.0000173065419261  0.6672344031998940  0.2386400046794698   T   T   T
  0.3327976711386431  0.6695319593878042  0.2384484951282853   T   T   T
  0.6672528622872788  0.6695403118238498  0.2384499992686231   T   T   T
  0.5001971590503004  0.3319019952558813  0.3645462066396334   T   T   T
  0.4995319678672268  0.3308255636190041  0.4205083036656905   T   T   T
  0.6502293356568448  0.3326396632003194  0.3352879700097048   T   T   T
  0.3507590291761660  0.3323781344829178  0.3348872327690989   T   T   T
 
  0.00000000E+00  0.00000000E+00  0.00000000E+00
  0.00000000E+00  0.00000000E+00  0.00000000E+00
  0.00000000E+00  0.00000000E+00  0.00000000E+00
  0.00000000E+00  0.00000000E+00  0.00000000E+00
  0.00000000E+00  0.00000000E+00  0.00000000E+00
  0.00000000E+00  0.00000000E+00  0.00000000E+00
  0.00000000E+00  0.00000000E+00  0.00000000E+00
  0.00000000E+00  0.00000000E+00  0.00000000E+00
  0.00000000E+00  0.00000000E+00  0.00000000E+00
  0.00000000E+00  0.00000000E+00  0.00000000E+00
  0.00000000E+00  0.00000000E+00  0.00000000E+00
  0.00000000E+00  0.00000000E+00  0.00000000E+00
  0.00000000E+00  0.00000000E+00  0.00000000E+00
  0.00000000E+00  0.00000000E+00  0.00000000E+00
  0.00000000E+00  0.00000000E+00  0.00000000E+00
  0.00000000E+00  0.00000000E+00  0.00000000E+00
  0.00000000E+00  0.00000000E+00  0.00000000E+00
  0.00000000E+00  0.00000000E+00  0.00000000E+00
  0.00000000E+00  0.00000000E+00  0.00000000E+00
  0.00000000E+00  0.00000000E+00  0.00000000E+00
  0.00000000E+00  0.00000000E+00  0.00000000E+00
  0.00000000E+00  0.00000000E+00  0.00000000E+00
  0.00000000E+00  0.00000000E+00  0.00000000E+00
  0.00000000E+00  0.00000000E+00  0.00000000E+00
  0.00000000E+00  0.00000000E+00  0.00000000E+00
  0.00000000E+00  0.00000000E+00  0.00000000E+00
  0.00000000E+00  0.00000000E+00  0.00000000E+00
  0.00000000E+00  0.00000000E+00  0.00000000E+00
  0.00000000E+00  0.00000000E+00  0.00000000E+00
  0.00000000E+00  0.00000000E+00  0.00000000E+00
  0.00000000E+00  0.00000000E+00  0.00000000E+00
  0.00000000E+00  0.00000000E+00  0.00000000E+00
  0.00000000E+00  0.00000000E+00  0.00000000E+00
  0.00000000E+00  0.00000000E+00  0.00000000E+00
  0.00000000E+00  0.00000000E+00  0.00000000E+00
  0.00000000E+00  0.00000000E+00  0.00000000E+00
  0.00000000E+00  0.00000000E+00  0.00000000E+00
  0.00000000E+00  0.00000000E+00  0.00000000E+00
  0.00000000E+00  0.00000000E+00  0.00000000E+00
  0.00000000E+00  0.00000000E+00  0.00000000E+00
