Ru  N  O                                
   1.00000000000000     
     8.1600000000000001    0.0000000000000000    0.0000000000000000
     4.0800000000000001    7.0667672948810196    0.0000000000000000
     0.0000000000000000    0.0000000000000000   23.5951999999999984
   Ru   N    O 
    36     1     3
Selective dynamics
Direct
  0.8888888888888857  0.2222222222222214  0.0000000000000000   F   F   F
  0.2222222222222214  0.2222222222222214  0.0000000000000000   F   F   F
  0.5555555555555571  0.2222222222222214  0.0000000000000000   F   F   F
  0.8888888888888857  0.5555555555555571  0.0000000000000000   F   F   F
  0.2222222222222214  0.5555555555555571  0.0000000000000000   F   F   F
  0.5555555555555571  0.5555555555555571  0.0000000000000000   F   F   F
  0.8888888888888857  0.8888888888888857  0.0000000000000000   F   F   F
  0.2222222222222214  0.8888888888888857  0.0000000000000000   F   F   F
  0.5555555555555571  0.8888888888888857  0.0000000000000000   F   F   F
  0.0000000000000000  0.0000000000000000  0.0910693700413674   F   F   F
  0.3333333333333357  0.0000000000000000  0.0910693700413674   F   F   F
  0.6666666666666643  0.0000000000000000  0.0910693700413674   F   F   F
  0.0000000000000000  0.3333333333333357  0.0910693700413674   F   F   F
  0.3333333333333357  0.3333333333333357  0.0910693700413674   F   F   F
  0.6666666666666643  0.3333333333333357  0.0910693700413674   F   F   F
  0.0000000000000000  0.6666666666666643  0.0910693700413674   F   F   F
  0.3333333333333357  0.6666666666666643  0.0910693700413674   F   F   F
  0.6666666666666643  0.6666666666666643  0.0910693700413674   F   F   F
  0.8885395552141957  0.2230911270968809  0.1830729937766533   T   T   T
  0.2216541511016273  0.2230572429503549  0.1830357713971393   T   T   T
  0.5557472107591703  0.2218430116116378  0.1827862135732043   T   T   T
  0.8893225331026960  0.5546577256546511  0.1821710065866038   T   T   T
  0.2226037090497885  0.5551882911962890  0.1825998229685230   T   T   T
  0.5555219110083808  0.5551714534155484  0.1826184133092900   T   T   T
  0.8887685666098378  0.8887419881969502  0.1827569101578237   T   T   T
  0.2219780131747599  0.8893507451298976  0.1833186513370899   T   T   T
  0.5558150001754606  0.8886969877059656  0.1827398036472601   T   T   T
  0.0020002597121468  0.9983117301762835  0.2704219065433703   T   T   T
  0.3329438621204944  0.9982460796223090  0.2703934157434588   T   T   T
  0.6704786692488189  0.9925080653815692  0.2701201894935602   T   T   T
  0.9995245879742410  0.3342469598653927  0.2706083132775189   T   T   T
  0.3344155773690648  0.3331715385806300  0.2728316651692573   T   T   T
  0.6656722322452967  0.3333098439707136  0.2729248728436983   T   T   T
  0.9986398443763785  0.6682161936800980  0.2705276815840473   T   T   T
  0.3298954523991239  0.6734903343503627  0.2702494054227692   T   T   T
  0.6664887880372377  0.6682906145463153  0.2705302574878181   T   T   T
  0.5004261519888111  0.3313818465959996  0.3912895807380300   T   T   T
  0.5002499600120722  0.3307809097627857  0.4436045406662716   T   T   T
  0.6380621641553188  0.3340145377794029  0.3639294574669048   T   T   T
  0.3628317609611246  0.3293561051556482  0.3636492769149727   T   T   T
 
  0.00000000E+00  0.00000000E+00  0.00000000E+00
  0.00000000E+00  0.00000000E+00  0.00000000E+00
  0.00000000E+00  0.00000000E+00  0.00000000E+00
  0.00000000E+00  0.00000000E+00  0.00000000E+00
  0.00000000E+00  0.00000000E+00  0.00000000E+00
  0.00000000E+00  0.00000000E+00  0.00000000E+00
  0.00000000E+00  0.00000000E+00  0.00000000E+00
  0.00000000E+00  0.00000000E+00  0.00000000E+00
  0.00000000E+00  0.00000000E+00  0.00000000E+00
  0.00000000E+00  0.00000000E+00  0.00000000E+00
  0.00000000E+00  0.00000000E+00  0.00000000E+00
  0.00000000E+00  0.00000000E+00  0.00000000E+00
  0.00000000E+00  0.00000000E+00  0.00000000E+00
  0.00000000E+00  0.00000000E+00  0.00000000E+00
  0.00000000E+00  0.00000000E+00  0.00000000E+00
  0.00000000E+00  0.00000000E+00  0.00000000E+00
  0.00000000E+00  0.00000000E+00  0.00000000E+00
  0.00000000E+00  0.00000000E+00  0.00000000E+00
  0.00000000E+00  0.00000000E+00  0.00000000E+00
  0.00000000E+00  0.00000000E+00  0.00000000E+00
  0.00000000E+00  0.00000000E+00  0.00000000E+00
  0.00000000E+00  0.00000000E+00  0.00000000E+00
  0.00000000E+00  0.00000000E+00  0.00000000E+00
  0.00000000E+00  0.00000000E+00  0.00000000E+00
  0.00000000E+00  0.00000000E+00  0.00000000E+00
  0.00000000E+00  0.00000000E+00  0.00000000E+00
  0.00000000E+00  0.00000000E+00  0.00000000E+00
  0.00000000E+00  0.00000000E+00  0.00000000E+00
  0.00000000E+00  0.00000000E+00  0.00000000E+00
  0.00000000E+00  0.00000000E+00  0.00000000E+00
  0.00000000E+00  0.00000000E+00  0.00000000E+00
  0.00000000E+00  0.00000000E+00  0.00000000E+00
  0.00000000E+00  0.00000000E+00  0.00000000E+00
  0.00000000E+00  0.00000000E+00  0.00000000E+00
  0.00000000E+00  0.00000000E+00  0.00000000E+00
  0.00000000E+00  0.00000000E+00  0.00000000E+00
  0.00000000E+00  0.00000000E+00  0.00000000E+00
  0.00000000E+00  0.00000000E+00  0.00000000E+00
  0.00000000E+00  0.00000000E+00  0.00000000E+00
  0.00000000E+00  0.00000000E+00  0.00000000E+00
