Ni   N    O 
   1.00000000000000     
   7.5306872196367305   0.0000000000000000   0.0000000000000000
   0.0000000000000000   7.5306872196367305   0.0000000000000000
   0.0000000000000000   0.0000000000000000  22.1000000000000014
Ni   N    O 
36  1  3  
Selective dynamics
Direct
  0.1666666666666640  0.1666666666666640  0.0000000000000000 F F F
  0.5000000000000000  0.1666666666666640  0.0000000000000000 F F F
  0.8333333333333360  0.1666666666666640  0.0000000000000000 F F F
  0.1666666666666640  0.5000000000000000  0.0000000000000000 F F F
  0.5000000000000000  0.5000000000000000  0.0000000000000000 F F F
  0.8333333333333360  0.5000000000000000  0.0000000000000000 F F F
  0.1666666666666640  0.8333333333333360  0.0000000000000000 F F F
  0.5000000000000000  0.8333333333333360  0.0000000000000000 F F F
  0.8333333333333360  0.8333333333333360  0.0000000000000000 F F F
  0.0000000000000000  0.0000000000000000  0.0803167420814503 F F F
  0.3333333333333360  0.0000000000000000  0.0803167420814503 F F F
  0.6666666666666640  0.0000000000000000  0.0803167420814503 F F F
  0.0000000000000000  0.3333333333333360  0.0803167420814503 F F F
  0.3333333333333360  0.3333333333333360  0.0803167420814503 F F F
  0.6666666666666640  0.3333333333333360  0.0803167420814503 F F F
  0.0000000000000000  0.6666666666666640  0.0803167420814503 F F F
  0.3333333333333360  0.6666666666666640  0.0803167420814503 F F F
  0.6666666666666640  0.6666666666666640  0.0803167420814503 F F F
  0.1695857313266840  0.1685670655209610  0.1616513132794280 T T T
  0.5005090379602710  0.1697368343346640  0.1624171231328050 T T T
  0.8326216138228090  0.1693738171771670  0.1619045283917520 T T T
  0.1692104316506900  0.4980410712520320  0.1606668087923140 T T T
  0.5000317062171150  0.4967362716365640  0.1621932080753150 T T T
  0.8306858261901410  0.4982514372123600  0.1616964471683180 T T T
  0.1660474171475240  0.8336971956772961  0.1603275263006270 T T T
  0.4990028767812120  0.8323429685951640  0.1606900165783860 T T T
  0.8336505196416010  0.8331726399580009  0.1605397715686220 T T T
  0.0002648793783422  0.0005112907703122  0.2380813448194060 T T T
  0.3332446870932490  0.9964932166883500  0.2378556569844360 T T T
  0.6677822318043520  0.9966432199628770  0.2377383050311150 T T T
  0.0027458668308640  0.3354367231603920  0.2388004527656310 T T T
  0.3332625195250430  0.3308965173900380  0.2473656499877780 T T T
  0.6728914370329800  0.3336172684803740  0.2455364404250630 T T T
  0.9979637123783009  0.6694343062420740  0.2390708250348440 T T T
  0.3305565639023840  0.6676230631897370  0.2388413262645060 T T T
  0.6655764986866970  0.6695363111472969  0.2379375664894430 T T T
  0.4787832578327310  0.3179139181104130  0.3524847122074630 T T T
  0.4534257952789320  0.3109444046256800  0.4055855042013330 T T T
  0.6378403351297380  0.3219414660689140  0.3323750360483540 T T T
  0.2838886384997250  0.3940688947638260  0.3161578278260390 T T T
