Cu Rh Cu  N  O                          
   1.00000000000000     
     7.8488852711706780    0.0000000000000000    0.0000000000000000
     3.9244426355853390    6.7973340362233188    0.0000000000000000
     0.0000000000000000    0.0000000000000000   23.5447839840064646
   Cu   Rh   Cu   N    O 
    31     1     4     1     3
Selective dynamics
Direct
  0.0000000000000000  0.0000000000000000  0.0000000000000000   F   F   F
  0.3333333333333357  0.0000000000000000  0.0000000000000000   F   F   F
  0.6666666666666643  0.0000000000000000  0.0000000000000000   F   F   F
  0.0000000000000000  0.3333333333333357  0.0000000000000000   F   F   F
  0.3333333333333357  0.3333333333333357  0.0000000000000000   F   F   F
  0.6666666666666643  0.3333333333333357  0.0000000000000000   F   F   F
  0.0000000000000000  0.6666666666666643  0.0000000000000000   F   F   F
  0.3333333333333357  0.6666666666666643  0.0000000000000000   F   F   F
  0.6666666666666643  0.6666666666666643  0.0000000000000000   F   F   F
  0.1111111111111143  0.1111111111111143  0.0907290547856689   F   F   F
  0.4444444444444429  0.1111111111111143  0.0907290547856689   F   F   F
  0.7777777777777786  0.1111111111111143  0.0907290547856689   F   F   F
  0.1111111111111143  0.4444444444444429  0.0907290547856689   F   F   F
  0.4444444444444429  0.4444444444444429  0.0907290547856689   F   F   F
  0.7777777777777786  0.4444444444444429  0.0907290547856689   F   F   F
  0.1111111111111143  0.7777777777777786  0.0907290547856689   F   F   F
  0.4444444444444429  0.7777777777777786  0.0907290547856689   F   F   F
  0.7777777777777786  0.7777777777777786  0.0907290547856689   F   F   F
  0.8845010667979641  0.2245909219355914  0.1801200491447235   T   T   T
  0.2235178024571157  0.2234985781989045  0.1786218377650962   T   T   T
  0.5546501491312784  0.2243987263246913  0.1797252508467305   T   T   T
  0.8888522265719133  0.5554217040773101  0.1785652742275554   T   T   T
  0.2226759857363789  0.5536732709775246  0.1786779365155855   T   T   T
  0.5567568542789691  0.5529129474614883  0.1801616573002180   T   T   T
  0.8884001624855193  0.8892181372324303  0.1785998706596217   T   T   T
  0.2221571267287237  0.8893772475375785  0.1783346567780950   T   T   T
  0.5548157903183449  0.8890988799535082  0.1784508136014096   T   T   T
  0.0012955130738234 -0.0012903199592394  0.2659915385744891   T   T   T
  0.3326292030482118 -0.0014969128644674  0.2663060415218959   T   T   T
  0.6688436413113507 -0.0044371325791039  0.2661473033607435   T   T   T
 -0.0000694098157513  0.3338567468371630  0.2662769942680235   T   T   T
  0.3330964724835357  0.3340263946092941  0.2707189775216967   T   T   T
  0.6704546345538039  0.3333715992202235  0.2726502992305718   T   T   T
 -0.0026443967881819  0.6690447554639031  0.2664096235581435   T   T   T
  0.3307415835779703  0.6717979848635907  0.2662198563003604   T   T   T
  0.6672238083358294  0.6679528224049252  0.2659935699346642   T   T   T
  0.5052498048137438  0.3320881170208302  0.3892569323284311   T   T   T
  0.4998876168347632  0.3350058977152059  0.4419082431282033   T   T   T
  0.6523178737621335  0.3244385906533334  0.3624569277950192   T   T   T
  0.3583504556520373  0.3372290124224195  0.3615065302721058   T   T   T
 
  0.00000000E+00  0.00000000E+00  0.00000000E+00
  0.00000000E+00  0.00000000E+00  0.00000000E+00
  0.00000000E+00  0.00000000E+00  0.00000000E+00
  0.00000000E+00  0.00000000E+00  0.00000000E+00
  0.00000000E+00  0.00000000E+00  0.00000000E+00
  0.00000000E+00  0.00000000E+00  0.00000000E+00
  0.00000000E+00  0.00000000E+00  0.00000000E+00
  0.00000000E+00  0.00000000E+00  0.00000000E+00
  0.00000000E+00  0.00000000E+00  0.00000000E+00
  0.00000000E+00  0.00000000E+00  0.00000000E+00
  0.00000000E+00  0.00000000E+00  0.00000000E+00
  0.00000000E+00  0.00000000E+00  0.00000000E+00
  0.00000000E+00  0.00000000E+00  0.00000000E+00
  0.00000000E+00  0.00000000E+00  0.00000000E+00
  0.00000000E+00  0.00000000E+00  0.00000000E+00
  0.00000000E+00  0.00000000E+00  0.00000000E+00
  0.00000000E+00  0.00000000E+00  0.00000000E+00
  0.00000000E+00  0.00000000E+00  0.00000000E+00
  0.00000000E+00  0.00000000E+00  0.00000000E+00
  0.00000000E+00  0.00000000E+00  0.00000000E+00
  0.00000000E+00  0.00000000E+00  0.00000000E+00
  0.00000000E+00  0.00000000E+00  0.00000000E+00
  0.00000000E+00  0.00000000E+00  0.00000000E+00
  0.00000000E+00  0.00000000E+00  0.00000000E+00
  0.00000000E+00  0.00000000E+00  0.00000000E+00
  0.00000000E+00  0.00000000E+00  0.00000000E+00
  0.00000000E+00  0.00000000E+00  0.00000000E+00
  0.00000000E+00  0.00000000E+00  0.00000000E+00
  0.00000000E+00  0.00000000E+00  0.00000000E+00
  0.00000000E+00  0.00000000E+00  0.00000000E+00
  0.00000000E+00  0.00000000E+00  0.00000000E+00
  0.00000000E+00  0.00000000E+00  0.00000000E+00
  0.00000000E+00  0.00000000E+00  0.00000000E+00
  0.00000000E+00  0.00000000E+00  0.00000000E+00
  0.00000000E+00  0.00000000E+00  0.00000000E+00
  0.00000000E+00  0.00000000E+00  0.00000000E+00
  0.00000000E+00  0.00000000E+00  0.00000000E+00
  0.00000000E+00  0.00000000E+00  0.00000000E+00
  0.00000000E+00  0.00000000E+00  0.00000000E+00
  0.00000000E+00  0.00000000E+00  0.00000000E+00
