Cu Ni Cu  N  O                          
   1.00000000000000     
     7.8488852711706780    0.0000000000000000    0.0000000000000000
     3.9244426355853390    6.7973340362233188    0.0000000000000000
     0.0000000000000000    0.0000000000000000   23.5447839840064646
   Cu   Ni   Cu   N    O 
    31     1     4     1     3
Selective dynamics
Direct
  0.0000000000000000  0.0000000000000000  0.0000000000000000   F   F   F
  0.3333333333333357  0.0000000000000000  0.0000000000000000   F   F   F
  0.6666666666666643  0.0000000000000000  0.0000000000000000   F   F   F
  0.0000000000000000  0.3333333333333357  0.0000000000000000   F   F   F
  0.3333333333333357  0.3333333333333357  0.0000000000000000   F   F   F
  0.6666666666666643  0.3333333333333357  0.0000000000000000   F   F   F
  0.0000000000000000  0.6666666666666643  0.0000000000000000   F   F   F
  0.3333333333333357  0.6666666666666643  0.0000000000000000   F   F   F
  0.6666666666666643  0.6666666666666643  0.0000000000000000   F   F   F
  0.1111111111111143  0.1111111111111143  0.0907290547856689   F   F   F
  0.4444444444444429  0.1111111111111143  0.0907290547856689   F   F   F
  0.7777777777777786  0.1111111111111143  0.0907290547856689   F   F   F
  0.1111111111111143  0.4444444444444429  0.0907290547856689   F   F   F
  0.4444444444444429  0.4444444444444429  0.0907290547856689   F   F   F
  0.7777777777777786  0.4444444444444429  0.0907290547856689   F   F   F
  0.1111111111111143  0.7777777777777786  0.0907290547856689   F   F   F
  0.4444444444444429  0.7777777777777786  0.0907290547856689   F   F   F
  0.7777777777777786  0.7777777777777786  0.0907290547856689   F   F   F
  0.8863990749213791  0.2237626809630635  0.1817801763421230   T   T   T
  0.2247739089972196  0.2239773143455817  0.1814808379063408   T   T   T
  0.5538519371619750  0.2253079206346388  0.1814033695740494   T   T   T
  0.8892800271375538  0.5551184774592771  0.1807962132115878   T   T   T
  0.2233689484781447  0.5520945249123738  0.1808127477239682   T   T   T
  0.5576996794824711  0.5532539184005567  0.1809732745287934   T   T   T
  0.8904726680348438  0.8884296426515285  0.1802441192446218   T   T   T
  0.2216088379114808  0.8909393239093406  0.1799074831928829   T   T   T
  0.5545652520163793  0.8884014098371257  0.1800671734308050   T   T   T
  0.0023867347877727 -0.0016474071561299  0.2695390925358803   T   T   T
  0.3334059809902462  0.0004942361650920  0.2696329464043101   T   T   T
  0.6680485886293892 -0.0036653236745034  0.2664643642148052   T   T   T
  0.0029222223898418  0.3337559079032187  0.2696390683289659   T   T   T
  0.3345497780847590  0.3338196043678682  0.2712903207765276   T   T   T
  0.6671335122098477  0.3336962294496382  0.2727263471173338   T   T   T
  0.0005813782568262  0.6661751115949742  0.2697062036016373   T   T   T
  0.3309635402509212  0.6707066677250320  0.2664593503374870   T   T   T
  0.6676417976513522  0.6681084554232420  0.2696327054856102   T   T   T
  0.4919025173180391  0.3370133060964606  0.3861808604652074   T   T   T
  0.4786674860513062  0.3393193024512379  0.4388252133724079   T   T   T
  0.6392523274884769  0.3371250465865265  0.3619109333139174   T   T   T
  0.3536356967047012  0.3346241371001391  0.3557170478851262   T   T   T
 
  0.00000000E+00  0.00000000E+00  0.00000000E+00
  0.00000000E+00  0.00000000E+00  0.00000000E+00
  0.00000000E+00  0.00000000E+00  0.00000000E+00
  0.00000000E+00  0.00000000E+00  0.00000000E+00
  0.00000000E+00  0.00000000E+00  0.00000000E+00
  0.00000000E+00  0.00000000E+00  0.00000000E+00
  0.00000000E+00  0.00000000E+00  0.00000000E+00
  0.00000000E+00  0.00000000E+00  0.00000000E+00
  0.00000000E+00  0.00000000E+00  0.00000000E+00
  0.00000000E+00  0.00000000E+00  0.00000000E+00
  0.00000000E+00  0.00000000E+00  0.00000000E+00
  0.00000000E+00  0.00000000E+00  0.00000000E+00
  0.00000000E+00  0.00000000E+00  0.00000000E+00
  0.00000000E+00  0.00000000E+00  0.00000000E+00
  0.00000000E+00  0.00000000E+00  0.00000000E+00
  0.00000000E+00  0.00000000E+00  0.00000000E+00
  0.00000000E+00  0.00000000E+00  0.00000000E+00
  0.00000000E+00  0.00000000E+00  0.00000000E+00
  0.00000000E+00  0.00000000E+00  0.00000000E+00
  0.00000000E+00  0.00000000E+00  0.00000000E+00
  0.00000000E+00  0.00000000E+00  0.00000000E+00
  0.00000000E+00  0.00000000E+00  0.00000000E+00
  0.00000000E+00  0.00000000E+00  0.00000000E+00
  0.00000000E+00  0.00000000E+00  0.00000000E+00
  0.00000000E+00  0.00000000E+00  0.00000000E+00
  0.00000000E+00  0.00000000E+00  0.00000000E+00
  0.00000000E+00  0.00000000E+00  0.00000000E+00
  0.00000000E+00  0.00000000E+00  0.00000000E+00
  0.00000000E+00  0.00000000E+00  0.00000000E+00
  0.00000000E+00  0.00000000E+00  0.00000000E+00
  0.00000000E+00  0.00000000E+00  0.00000000E+00
  0.00000000E+00  0.00000000E+00  0.00000000E+00
  0.00000000E+00  0.00000000E+00  0.00000000E+00
  0.00000000E+00  0.00000000E+00  0.00000000E+00
  0.00000000E+00  0.00000000E+00  0.00000000E+00
  0.00000000E+00  0.00000000E+00  0.00000000E+00
  0.00000000E+00  0.00000000E+00  0.00000000E+00
  0.00000000E+00  0.00000000E+00  0.00000000E+00
  0.00000000E+00  0.00000000E+00  0.00000000E+00
  0.00000000E+00  0.00000000E+00  0.00000000E+00
