Ni  N  O                                
   1.00000000000000     
     7.5306872196367305    0.0000000000000000    0.0000000000000000
     3.7653436098183652    6.5217664401602118    0.0000000000000000
     0.0000000000000000    0.0000000000000000   23.1983738224926874
   Ni   N    O 
    36     1     3
Selective dynamics
Direct
  0.0000000000000000  0.0000000000000000  0.0000000000000000   F   F   F
  0.3333333333333357  0.0000000000000000  0.0000000000000000   F   F   F
  0.6666666666666643  0.0000000000000000  0.0000000000000000   F   F   F
  0.0000000000000000  0.3333333333333357  0.0000000000000000   F   F   F
  0.3333333333333357  0.3333333333333357  0.0000000000000000   F   F   F
  0.6666666666666643  0.3333333333333357  0.0000000000000000   F   F   F
  0.0000000000000000  0.6666666666666643  0.0000000000000000   F   F   F
  0.3333333333333357  0.6666666666666643  0.0000000000000000   F   F   F
  0.6666666666666643  0.6666666666666643  0.0000000000000000   F   F   F
  0.1111111111111143  0.1111111111111143  0.0883507383451132   F   F   F
  0.4444444444444429  0.1111111111111143  0.0883507383451132   F   F   F
  0.7777777777777786  0.1111111111111143  0.0883507383451132   F   F   F
  0.1111111111111143  0.4444444444444429  0.0883507383451132   F   F   F
  0.4444444444444429  0.4444444444444429  0.0883507383451132   F   F   F
  0.7777777777777786  0.4444444444444429  0.0883507383451132   F   F   F
  0.1111111111111143  0.7777777777777786  0.0883507383451132   F   F   F
  0.4444444444444429  0.7777777777777786  0.0883507383451132   F   F   F
  0.7777777777777786  0.7777777777777786  0.0883507383451132   F   F   F
  0.8863648107177061  0.2244116609261078  0.1771950757118930   T   T   T
  0.2242242753861734  0.2241092607822930  0.1771834800889476   T   T   T
  0.5551558267193355  0.2241785679804126  0.1776815267719829   T   T   T
  0.8895508284038506  0.5557156166010433  0.1756432026425492   T   T   T
  0.2243191930034987  0.5532904833604773  0.1768093556193136   T   T   T
  0.5573322785247818  0.5533309600157458  0.1767648648984973   T   T   T
  0.8896084925459329  0.8894083238643117  0.1755485135654449   T   T   T
  0.2226064288097000  0.8896531154017496  0.1755141425749055   T   T   T
  0.5558363790552175  0.8891483280486125  0.1755366207826861   T   T   T
  0.0027615107664034 -0.0008566738660913  0.2625610340553446   T   T   T
  0.3349635494049093 -0.0010347031774149  0.2626559254322514   T   T   T
  0.6706056296275630 -0.0048959549419561  0.2620527478392586   T   T   T
  0.0013426254271357  0.3347527112871516  0.2623490466785098   T   T   T
  0.3349290306206286  0.3345082387502068  0.2696157394577261   T   T   T
  0.6674952512099295  0.3343751880117525  0.2693416116954242   T   T   T
 -0.0006478041200268  0.6689037519362920  0.2625595050911147   T   T   T
  0.3315521581622378  0.6730064215450164  0.2619259508320840   T   T   T
  0.6683186928074827  0.6685832298763547  0.2625605087334734   T   T   T
  0.4980136424923084  0.3417062355095939  0.3832135495845972   T   T   T
  0.4965961291122802  0.3454100091546785  0.4359866072018071   T   T   T
  0.6493768236004004  0.3396454693133866  0.3545273360796825   T   T   T
  0.3479428214971285  0.3399741255106464  0.3548603394935164   T   T   T
 
  0.00000000E+00  0.00000000E+00  0.00000000E+00
  0.00000000E+00  0.00000000E+00  0.00000000E+00
  0.00000000E+00  0.00000000E+00  0.00000000E+00
  0.00000000E+00  0.00000000E+00  0.00000000E+00
  0.00000000E+00  0.00000000E+00  0.00000000E+00
  0.00000000E+00  0.00000000E+00  0.00000000E+00
  0.00000000E+00  0.00000000E+00  0.00000000E+00
  0.00000000E+00  0.00000000E+00  0.00000000E+00
  0.00000000E+00  0.00000000E+00  0.00000000E+00
  0.00000000E+00  0.00000000E+00  0.00000000E+00
  0.00000000E+00  0.00000000E+00  0.00000000E+00
  0.00000000E+00  0.00000000E+00  0.00000000E+00
  0.00000000E+00  0.00000000E+00  0.00000000E+00
  0.00000000E+00  0.00000000E+00  0.00000000E+00
  0.00000000E+00  0.00000000E+00  0.00000000E+00
  0.00000000E+00  0.00000000E+00  0.00000000E+00
  0.00000000E+00  0.00000000E+00  0.00000000E+00
  0.00000000E+00  0.00000000E+00  0.00000000E+00
  0.00000000E+00  0.00000000E+00  0.00000000E+00
  0.00000000E+00  0.00000000E+00  0.00000000E+00
  0.00000000E+00  0.00000000E+00  0.00000000E+00
  0.00000000E+00  0.00000000E+00  0.00000000E+00
  0.00000000E+00  0.00000000E+00  0.00000000E+00
  0.00000000E+00  0.00000000E+00  0.00000000E+00
  0.00000000E+00  0.00000000E+00  0.00000000E+00
  0.00000000E+00  0.00000000E+00  0.00000000E+00
  0.00000000E+00  0.00000000E+00  0.00000000E+00
  0.00000000E+00  0.00000000E+00  0.00000000E+00
  0.00000000E+00  0.00000000E+00  0.00000000E+00
  0.00000000E+00  0.00000000E+00  0.00000000E+00
  0.00000000E+00  0.00000000E+00  0.00000000E+00
  0.00000000E+00  0.00000000E+00  0.00000000E+00
  0.00000000E+00  0.00000000E+00  0.00000000E+00
  0.00000000E+00  0.00000000E+00  0.00000000E+00
  0.00000000E+00  0.00000000E+00  0.00000000E+00
  0.00000000E+00  0.00000000E+00  0.00000000E+00
  0.00000000E+00  0.00000000E+00  0.00000000E+00
  0.00000000E+00  0.00000000E+00  0.00000000E+00
  0.00000000E+00  0.00000000E+00  0.00000000E+00
  0.00000000E+00  0.00000000E+00  0.00000000E+00
