Ru  N  O 
 1.0000000000000000
     8.1600000000000001    0.0000000000000000    0.0000000000000000
     4.0800000000000001    7.0667672948810196    0.0000000000000000
     0.0000000000000000    0.0000000000000000   23.5951999999999984
 Ru  N   O  
  36   1   3
Selective dynamics
Cartesian
  0.0000000000000000  1.5703927321957818  0.0000000000000000   F   F   F
  2.7200000000000002  1.5703927321957818  0.0000000000000000   F   F   F
  5.4399999999999995  1.5703927321957818  0.0000000000000000   F   F   F
  1.3599999999999997  3.9259818304894547  0.0000000000000000   F   F   F
  4.0800000000000001  3.9259818304894547  0.0000000000000000   F   F   F
  6.7999999999999998  3.9259818304894547  0.0000000000000000   F   F   F
  2.7199999999999998  6.2815709287831272  0.0000000000000000   F   F   F
  5.4399999999999995  6.2815709287831272  0.0000000000000000   F   F   F
  8.1600000000000001  6.2815709287831272  0.0000000000000000   F   F   F
  0.0000000000000000  0.0000000000000000  2.1488000000000000   F   F   F
  2.7199999999999998  0.0000000000000000  2.1488000000000000   F   F   F
  5.4399999999999995  0.0000000000000000  2.1488000000000000   F   F   F
  1.3599999999999999  2.3555890982936729  2.1488000000000000   F   F   F
  4.0800000000000001  2.3555890982936729  2.1488000000000000   F   F   F
  6.7999999999999989  2.3555890982936729  2.1488000000000000   F   F   F
  2.7199999999999998  4.7111781965873458  2.1488000000000000   F   F   F
  5.4399999999999995  4.7111781965873458  2.1488000000000000   F   F   F
  8.1600000000000001  4.7111781965873458  2.1488000000000000   F   F   F
  0.0000000000000000  1.5703927321957818  4.2976000000000001   T   T   T
  2.7200000000000002  1.5703927321957818  4.2976000000000001   T   T   T
  5.4399999999999995  1.5703927321957818  4.2976000000000001   T   T   T
  1.3599999999999997  3.9259818304894547  4.2976000000000001   T   T   T
  4.0800000000000001  3.9259818304894547  4.2976000000000001   T   T   T
  6.7999999999999998  3.9259818304894547  4.2976000000000001   T   T   T
  2.7199999999999998  6.2815709287831272  4.2976000000000001   T   T   T
  5.4399999999999995  6.2815709287831272  4.2976000000000001   T   T   T
  8.1600000000000001  6.2815709287831272  4.2976000000000001   T   T   T
  0.0000000000000000  0.0000000000000000  6.4464000000000006   T   T   T
  2.7199999999999998  0.0000000000000000  6.4464000000000006   T   T   T
  5.4399999999999995  0.0000000000000000  6.4464000000000006   T   T   T
  1.3599999999999999  2.3555890982936729  6.4464000000000006   T   T   T
  4.0800000000000001  2.3555890982936729  6.4464000000000006   T   T   T
  6.7999999999999989  2.3555890982936729  6.4464000000000006   T   T   T
  2.7199999999999998  4.7111781965873458  6.4464000000000006   T   T   T
  5.4399999999999995  4.7111781965873458  6.4464000000000006   T   T   T
  8.1600000000000001  4.7111781965873458  6.4464000000000006   T   T   T
  5.1521075124993008  2.2999999999999998  8.5938510351396964   T   T   T
  4.5277450124993006  2.2999999999999998  9.6752786074804202   T   T   T
  6.4022894750014014  2.2999999999999998  8.5927563573798889   T   T   T
  4.1178580000000000  4.1000000000000005  7.7203610000000022   T   T   T

