Pd   N    O 
   1.00000000000000     
   8.4216417639317793   0.0000000000000000   0.0000000000000000
   4.2108208819658897   7.2933557091369101   0.0000000000000000
   0.0000000000000000   0.0000000000000000  24.1683222747312989
Pd   N    O 
36  1  3  
Selective dynamics
Direct
  0.0000000000000000  0.0000000000000000  0.0000000000000000 F F F
  0.3333333333333357  0.0000000000000000  0.0000000000000000 F F F
  0.6666666666666643  0.0000000000000000  0.0000000000000000 F F F
  0.0000000000000000  0.3333333333333357  0.0000000000000000 F F F
  0.3333333333333357  0.3333333333333357  0.0000000000000000 F F F
  0.6666666666666643  0.3333333333333357  0.0000000000000000 F F F
 -0.0000000000000000  0.6666666666666644  0.0000000000000000 F F F
  0.3333333333333356  0.6666666666666644  0.0000000000000000 F F F
  0.6666666666666642  0.6666666666666644  0.0000000000000000 F F F
  0.1111111111111143  0.1111111111111143  0.0948382160179690 F F F
  0.4444444444444429  0.1111111111111143  0.0948382160179690 F F F
  0.7777777777777785  0.1111111111111143  0.0948382160179690 F F F
  0.1111111111111142  0.4444444444444429  0.0948382160179690 F F F
  0.4444444444444429  0.4444444444444429  0.0948382160179690 F F F
  0.7777777777777786  0.4444444444444429  0.0948382160179690 F F F
  0.1111111111111143  0.7777777777777786  0.0948382160179690 F F F
  0.4444444444444429  0.7777777777777786  0.0948382160179690 F F F
  0.7777777777777786  0.7777777777777786  0.0948382160179690 F F F
  0.8856082046946524  0.2231478507946291  0.1906756994666529 T T T
  0.2228695434244304  0.2224722801743385  0.1906249476913766 T T T
  0.5550810026680618  0.2226701569054564  0.1900603824321396 T T T
  0.8876837521472546  0.5546854380379099  0.1889480235415509 T T T
  0.2208695837156736  0.5556662396495279  0.1888670544399255 T T T
  0.5550535939327131  0.5535913239606716  0.1902387525749475 T T T
  0.8875672695738063  0.8892518089861180  0.1887958692689974 T T T
  0.2220914362478857  0.8876620001415981  0.1898351471516874 T T T
  0.5546720620956905  0.8880958811689594  0.1890187895273471 T T T
  0.9963574761356060  0.9999537411101320  0.2849312173029459 T T T
  0.3297542142245343  0.9993051066018290  0.2851767322514736 T T T
  0.6630203291459847  0.9984741547652596  0.2840492255327999 T T T
  0.9956474718190580  0.3330428896204401  0.2850983209926052 T T T
  0.3254366819841756  0.3325806505699255  0.2853793625843490 T T T
  0.6648131765560658  0.3321878759009919  0.2893290064936229 T T T
  0.9912615028338676  0.6694486191988065  0.2832678165693699 T T T
  0.3257807205101007  0.6722533401853169  0.2849960981289563 T T T
  0.6627513873297599  0.6676448726384450  0.2843594628268145 T T T
  0.4515551233703419  0.4171645591149296  0.4005780345624737 T T T
  0.4137008360660359  0.4278132303132349  0.4499990222696872 T T T
  0.6179917992169864  0.3428084874757668  0.3829370314008649 T T T
  0.3146539155983228  0.4869417103802627  0.3638700148280720 T T T
