Cu  N  O                                
   1.00000000000000     
     7.8488852711706780    0.0000000000000000    0.0000000000000000
     0.0000000000000000    7.8488852711706780    0.0000000000000000
     0.0000000000000000    0.0000000000000000   22.3999999999999986
   Cu   N    O 
    36     1     3
Selective dynamics
Direct
  0.1666666666666643  0.1666666666666643  0.0000000000000000   F   F   F
  0.5000000000000000  0.1666666666666643  0.0000000000000000   F   F   F
  0.8333333333333357  0.1666666666666643  0.0000000000000000   F   F   F
  0.1666666666666643  0.5000000000000000  0.0000000000000000   F   F   F
  0.5000000000000000  0.5000000000000000  0.0000000000000000   F   F   F
  0.8333333333333357  0.5000000000000000  0.0000000000000000   F   F   F
  0.1666666666666643  0.8333333333333357  0.0000000000000000   F   F   F
  0.5000000000000000  0.8333333333333357  0.0000000000000000   F   F   F
  0.8333333333333357  0.8333333333333357  0.0000000000000000   F   F   F
  0.0000000000000000  0.0000000000000000  0.0825892857142847   F   F   F
  0.3333333333333357  0.0000000000000000  0.0825892857142847   F   F   F
  0.6666666666666643  0.0000000000000000  0.0825892857142847   F   F   F
  0.0000000000000000  0.3333333333333357  0.0825892857142847   F   F   F
  0.3333333333333357  0.3333333333333357  0.0825892857142847   F   F   F
  0.6666666666666643  0.3333333333333357  0.0825892857142847   F   F   F
  0.0000000000000000  0.6666666666666643  0.0825892857142847   F   F   F
  0.3333333333333357  0.6666666666666643  0.0825892857142847   F   F   F
  0.6666666666666643  0.6666666666666643  0.0825892857142847   F   F   F
  0.1691056696202900  0.1679817044216842  0.1616696761285788   T   T   T
  0.4983620968980293  0.1717530629847392  0.1658539372204646   T   T   T
  0.8317883102971220  0.1668107487289839  0.1646397393138569   T   T   T
  0.1712447149821765  0.4952794052864143  0.1649512690013642   T   T   T
  0.5012310562752057  0.4965171210094391  0.1659117503241181   T   T   T
  0.8341939109128438  0.4933621731464055  0.1650540820351648   T   T   T
  0.1655417493414926  0.8340324118268583  0.1635461135158640   T   T   T
  0.4968105885777127  0.8365696052418621  0.1640679979609501   T   T   T
  0.8353145067419586  0.8332546052932351  0.1638037823035645   T   T   T
 -0.0089518724573752 -0.0110476859547843  0.2459426821669034   T   T   T
  0.3322646443092266 -0.0012637906634044  0.2453498724193121   T   T   T
  0.6635371608939186 -0.0046095054167439  0.2410213879953230   T   T   T
  0.0029556112612047  0.3306184376178061  0.2450941587913699   T   T   T
  0.3316951466712115  0.3465777996299630  0.2546312754555774   T   T   T
  0.6781119397013231  0.3314888409841184  0.2477084674804996   T   T   T
  0.0002019751185734  0.6608084827527090  0.2409435584776726   T   T   T
  0.3342233898970891  0.6716665883127080  0.2411767930145581   T   T   T
  0.6698187000316699  0.6710681900501572  0.2413929862099026   T   T   T
  0.4457568474753181  0.3742612259923964  0.3371238731952463   T   T   T
  0.3807185822185094  0.3923243073920359  0.3862958508604662   T   T   T
  0.6124921950291351  0.3512595140637355  0.3349834638250582   T   T   T
  0.1553024106921354  0.1514855008320987  0.2793286657916076   T   T   T
 
  0.00000000E+00  0.00000000E+00  0.00000000E+00
  0.00000000E+00  0.00000000E+00  0.00000000E+00
  0.00000000E+00  0.00000000E+00  0.00000000E+00
  0.00000000E+00  0.00000000E+00  0.00000000E+00
  0.00000000E+00  0.00000000E+00  0.00000000E+00
  0.00000000E+00  0.00000000E+00  0.00000000E+00
  0.00000000E+00  0.00000000E+00  0.00000000E+00
  0.00000000E+00  0.00000000E+00  0.00000000E+00
  0.00000000E+00  0.00000000E+00  0.00000000E+00
  0.00000000E+00  0.00000000E+00  0.00000000E+00
  0.00000000E+00  0.00000000E+00  0.00000000E+00
  0.00000000E+00  0.00000000E+00  0.00000000E+00
  0.00000000E+00  0.00000000E+00  0.00000000E+00
  0.00000000E+00  0.00000000E+00  0.00000000E+00
  0.00000000E+00  0.00000000E+00  0.00000000E+00
  0.00000000E+00  0.00000000E+00  0.00000000E+00
  0.00000000E+00  0.00000000E+00  0.00000000E+00
  0.00000000E+00  0.00000000E+00  0.00000000E+00
  0.00000000E+00  0.00000000E+00  0.00000000E+00
  0.00000000E+00  0.00000000E+00  0.00000000E+00
  0.00000000E+00  0.00000000E+00  0.00000000E+00
  0.00000000E+00  0.00000000E+00  0.00000000E+00
  0.00000000E+00  0.00000000E+00  0.00000000E+00
  0.00000000E+00  0.00000000E+00  0.00000000E+00
  0.00000000E+00  0.00000000E+00  0.00000000E+00
  0.00000000E+00  0.00000000E+00  0.00000000E+00
  0.00000000E+00  0.00000000E+00  0.00000000E+00
  0.00000000E+00  0.00000000E+00  0.00000000E+00
  0.00000000E+00  0.00000000E+00  0.00000000E+00
  0.00000000E+00  0.00000000E+00  0.00000000E+00
  0.00000000E+00  0.00000000E+00  0.00000000E+00
  0.00000000E+00  0.00000000E+00  0.00000000E+00
  0.00000000E+00  0.00000000E+00  0.00000000E+00
  0.00000000E+00  0.00000000E+00  0.00000000E+00
  0.00000000E+00  0.00000000E+00  0.00000000E+00
  0.00000000E+00  0.00000000E+00  0.00000000E+00
  0.00000000E+00  0.00000000E+00  0.00000000E+00
  0.00000000E+00  0.00000000E+00  0.00000000E+00
  0.00000000E+00  0.00000000E+00  0.00000000E+00
  0.00000000E+00  0.00000000E+00  0.00000000E+00
