Cu  N  O 
 1.0000000000000000
     7.8488852711706780    0.0000000000000000    0.0000000000000000
     0.0000000000000000    7.8488852711706780    0.0000000000000000
     0.0000000000000000    0.0000000000000000   22.3999999999999986
 Cu  N   O  
  36   1   3
Selective dynamics
Cartesian
  1.3081475451951130  1.3081475451951130  0.0000000000000000   F   F   F
  3.9244426355853390  1.3081475451951130  0.0000000000000000   F   F   F
  6.5407377259755650  1.3081475451951130  0.0000000000000000   F   F   F
  1.3081475451951130  3.9244426355853390  0.0000000000000000   F   F   F
  3.9244426355853390  3.9244426355853390  0.0000000000000000   F   F   F
  6.5407377259755650  3.9244426355853390  0.0000000000000000   F   F   F
  1.3081475451951130  6.5407377259755650  0.0000000000000000   F   F   F
  3.9244426355853390  6.5407377259755650  0.0000000000000000   F   F   F
  6.5407377259755650  6.5407377259755650  0.0000000000000000   F   F   F
  0.0000000000000000  0.0000000000000000  1.8500000000000001   F   F   F
  2.6162950903902260  0.0000000000000000  1.8500000000000001   F   F   F
  5.2325901807804520  0.0000000000000000  1.8500000000000001   F   F   F
  0.0000000000000000  2.6162950903902260  1.8500000000000001   F   F   F
  2.6162950903902260  2.6162950903902260  1.8500000000000001   F   F   F
  5.2325901807804520  2.6162950903902260  1.8500000000000001   F   F   F
  0.0000000000000000  5.2325901807804520  1.8500000000000001   F   F   F
  2.6162950903902260  5.2325901807804520  1.8500000000000001   F   F   F
  5.2325901807804520  5.2325901807804520  1.8500000000000001   F   F   F
  1.3081475451951130  1.3081475451951130  3.7000000000000002   T   T   T
  3.9244426355853390  1.3081475451951130  3.7000000000000002   T   T   T
  6.5407377259755650  1.3081475451951130  3.7000000000000002   T   T   T
  1.3081475451951130  3.9244426355853390  3.7000000000000002   T   T   T
  3.9244426355853390  3.9244426355853390  3.7000000000000002   T   T   T
  6.5407377259755650  3.9244426355853390  3.7000000000000002   T   T   T
  1.3081475451951130  6.5407377259755650  3.7000000000000002   T   T   T
  3.9244426355853390  6.5407377259755650  3.7000000000000002   T   T   T
  6.5407377259755650  6.5407377259755650  3.7000000000000002   T   T   T
  0.0000000000000000  0.0000000000000000  5.5500000000000007   T   T   T
  2.6162950903902260  0.0000000000000000  5.5500000000000007   T   T   T
  5.2325901807804520  0.0000000000000000  5.5500000000000007   T   T   T
  0.0000000000000000  2.6162950903902260  5.5500000000000007   T   T   T
  2.6162950903902260  2.6162950903902260  5.5500000000000007   T   T   T
  5.2325901807804520  2.6162950903902260  5.5500000000000007   T   T   T
  0.0000000000000000  5.2325901807804520  5.5500000000000007   T   T   T
  2.6162950903902260  5.2325901807804520  5.5500000000000007   T   T   T
  5.2325901807804520  5.2325901807804520  5.5500000000000007   T   T   T
  3.8517999832937759  2.6308656082402382  7.3909373466950319   T   T   T
  3.2274374832937776  2.6308656082402382  8.4723649190357602   T   T   T
  5.1019819457958775  2.6308656082402382  7.3898426689352243   T   T   T
  1.3140343649459025  2.6038990812382097  6.8233488922371865   T   T   T

