Pd   N    O 
   1.00000000000000     
   8.4216417639317793   0.0000000000000000   0.0000000000000000
   4.2108208819658897   7.2933557091369101   0.0000000000000000
   0.0000000000000000   0.0000000000000000  24.1683222747312989
Pd   N    O 
36  1  3  
Selective dynamics
Direct
  0.0000000000000000  0.0000000000000000  0.0000000000000000 F F F
  0.3333333333333360  0.0000000000000000  0.0000000000000000 F F F
  0.6666666666666640  0.0000000000000000  0.0000000000000000 F F F
  0.0000000000000000  0.3333333333333360  0.0000000000000000 F F F
  0.3333333333333360  0.3333333333333360  0.0000000000000000 F F F
  0.6666666666666640  0.3333333333333360  0.0000000000000000 F F F
  0.0000000000000000  0.6666666666666640  0.0000000000000000 F F F
  0.3333333333333360  0.6666666666666640  0.0000000000000000 F F F
  0.6666666666666640  0.6666666666666640  0.0000000000000000 F F F
  0.1111111111111140  0.1111111111111140  0.0948382160179690 F F F
  0.4444444444444430  0.1111111111111140  0.0948382160179690 F F F
  0.7777777777777790  0.1111111111111140  0.0948382160179690 F F F
  0.1111111111111140  0.4444444444444430  0.0948382160179690 F F F
  0.4444444444444430  0.4444444444444430  0.0948382160179690 F F F
  0.7777777777777790  0.4444444444444430  0.0948382160179690 F F F
  0.1111111111111140  0.7777777777777790  0.0948382160179690 F F F
  0.4444444444444430  0.7777777777777790  0.0948382160179690 F F F
  0.7777777777777790  0.7777777777777790  0.0948382160179690 F F F
  0.8889400899993520  0.2209722294929860  0.1889970738728190 T T T
  0.2249612515517750  0.2200629212946410  0.1908740008936150 T T T
  0.5563664724509820  0.2206941716356850  0.1897216775005220 T T T
  0.8897950282573530  0.5542364421486921  0.1895413034541850 T T T
  0.2227061168734390  0.5544049902178400  0.1888407803857040 T T T
  0.5563632475263200  0.5539309933527360  0.1898866705414480 T T T
  0.8897475885567659  0.8870076004118350  0.1894716379579360 T T T
  0.2247747057672170  0.8857449156463200  0.1909012673873320 T T T
  0.5563939311473690  0.8871027013123790  0.1891721744929460 T T T
  0.9980340911986760  0.0005653927770126  0.2849089440982910 T T T
  0.3336611345401580  0.9971998208612760  0.2856898343635950 T T T
  0.6672355849698800  0.9957240097117080  0.2844353652542470 T T T
  0.9975538836367620  0.3302312339634170  0.2847722032832320 T T T
  0.3290811490038620  0.3280278865968500  0.2856484579803080 T T T
  0.6707014006149090  0.3289819063080800  0.2853875840185080 T T T
  0.9976992775379609  0.6660008192491280  0.2858090303990650 T T T
  0.3304117376093250  0.6706322263580300  0.2865102757939510 T T T
  0.6672827741934380  0.6656817265829820  0.2847694877991880 T T T
  0.4506417974001810  0.4205821654368190  0.4086787059256810 T T T
  0.3736231161785710  0.4426140200584710  0.4523454872498360 T T T
  0.6150296953337180  0.3476601401338040  0.3977953405561010 T T T
  0.2925240321742850  0.5129963128221680  0.3468116157007660 T T T
