Pd   N    O 
   1.00000000000000     
   8.4216417639317793   0.0000000000000000   0.0000000000000000
   4.2108208819658897   7.2933557091369101   0.0000000000000000
   0.0000000000000000   0.0000000000000000  24.1683222747312989
Pd   N    O 
36  1  3  
Selective dynamics
Direct
  0.0000000000000000  0.0000000000000000  0.0000000000000000 F F F
  0.3333333333333357  0.0000000000000000  0.0000000000000000 F F F
  0.6666666666666643  0.0000000000000000  0.0000000000000000 F F F
  0.0000000000000000  0.3333333333333357  0.0000000000000000 F F F
  0.3333333333333357  0.3333333333333357  0.0000000000000000 F F F
  0.6666666666666643  0.3333333333333357  0.0000000000000000 F F F
  0.0000000000000000  0.6666666666666643  0.0000000000000000 F F F
  0.3333333333333357  0.6666666666666643  0.0000000000000000 F F F
  0.6666666666666643  0.6666666666666643  0.0000000000000000 F F F
  0.1111111111111143  0.1111111111111143  0.0948382160179690 F F F
  0.4444444444444429  0.1111111111111143  0.0948382160179690 F F F
  0.7777777777777786  0.1111111111111143  0.0948382160179690 F F F
  0.1111111111111143  0.4444444444444429  0.0948382160179690 F F F
  0.4444444444444429  0.4444444444444429  0.0948382160179690 F F F
  0.7777777777777786  0.4444444444444429  0.0948382160179690 F F F
  0.1111111111111143  0.7777777777777786  0.0948382160179690 F F F
  0.4444444444444429  0.7777777777777786  0.0948382160179690 F F F
  0.7777777777777786  0.7777777777777786  0.0948382160179690 F F F
  0.8871749448024991  0.2251976223916895  0.1892346667503607 T T T
  0.2246682209522708  0.2255941013063602  0.1915262876063369 T T T
  0.5532493631196579  0.2252727389343750  0.1905708278138551 T T T
  0.8890112522704998  0.5576192937959661  0.1894827775270594 T T T
  0.2238297072818057  0.5545822989168184  0.1910360879053464 T T T
  0.5563517215857687  0.5552424508294050  0.1907022204571202 T T T
  0.8901177354827962  0.8886636441847369  0.1889035305811415 T T T
  0.2239396884600637  0.8900727513258803  0.1889826754850400 T T T
  0.5556232376052818  0.8890369848623499  0.1879602489366062 T T T
  0.0007687691626033  0.0040950862182820  0.2833590442181757 T T T
  0.3354862153037660  0.0026866274652889  0.2839577538496137 T T T
  0.6675784159035599  0.9982859049874150  0.2817742929241960 T T T
  0.0004103735909454  0.3322283016249082  0.2841731883442594 T T T
  0.3424745751796429  0.3198115541337412  0.3040332714764047 T T T
  0.6720476955148759  0.3333505860960909  0.2872265240515858 T T T
  0.9935427055595411  0.6678621591500498  0.2859550110129731 T T T
  0.3363130629525515  0.6755018566697188  0.2860107352933506 T T T
  0.6671942152997942  0.6697617422170369  0.2840099015712579 T T T
  0.4917804264711962  0.2498262980505545  0.3779954253462278 T T T
  0.4440260115557881  0.2013903877500449  0.4193642793629583 T T T
  0.6215922121635524  0.2870966929367013  0.3784035289830031 T T T
  0.2069026646555056  0.5876369088069416  0.3348743608221359 T T T
