Pd  N  O                                
   1.00000000000000     
     8.4216417639317811    0.0000000000000000    0.0000000000000000
     4.2108208819658905    7.2933557091369128    0.0000000000000000
     0.0000000000000000    0.0000000000000000   24.1683222747312563
   Pd   N    O 
    36     1     3
Selective dynamics
Direct
  0.0000000000000000  0.0000000000000000  0.0000000000000000   F   F   F
  0.3333333333333357  0.0000000000000000  0.0000000000000000   F   F   F
  0.6666666666666643  0.0000000000000000  0.0000000000000000   F   F   F
  0.0000000000000000  0.3333333333333357  0.0000000000000000   F   F   F
  0.3333333333333357  0.3333333333333357  0.0000000000000000   F   F   F
  0.6666666666666643  0.3333333333333357  0.0000000000000000   F   F   F
  0.0000000000000000  0.6666666666666643  0.0000000000000000   F   F   F
  0.3333333333333357  0.6666666666666643  0.0000000000000000   F   F   F
  0.6666666666666643  0.6666666666666643  0.0000000000000000   F   F   F
  0.1111111111111143  0.1111111111111143  0.0948382160179690   F   F   F
  0.4444444444444429  0.1111111111111143  0.0948382160179690   F   F   F
  0.7777777777777786  0.1111111111111143  0.0948382160179690   F   F   F
  0.1111111111111143  0.4444444444444429  0.0948382160179690   F   F   F
  0.4444444444444429  0.4444444444444429  0.0948382160179690   F   F   F
  0.7777777777777786  0.4444444444444429  0.0948382160179690   F   F   F
  0.1111111111111143  0.7777777777777786  0.0948382160179690   F   F   F
  0.4444444444444429  0.7777777777777786  0.0948382160179690   F   F   F
  0.7777777777777786  0.7777777777777786  0.0948382160179690   F   F   F
  0.8863849751742230  0.2237437675864699  0.1907789091155255   T   T   T
  0.2231681568879937  0.2237797856967887  0.1908735723119966   T   T   T
  0.5552550813924826  0.2226569467244020  0.1898990337483499   T   T   T
  0.8889129308154046  0.5554565039453292  0.1891891359578869   T   T   T
  0.2227754284648157  0.5540619311411211  0.1900400578256073   T   T   T
  0.5564623175082780  0.5539545138981574  0.1900911287627746   T   T   T
  0.8898093078116155  0.8882281581471795  0.1886444659220162   T   T   T
  0.2216676971458412  0.8899608810614252  0.1885775285560826   T   T   T
  0.5551853690576496  0.8881782585030652  0.1886567744929732   T   T   T
  0.0010670650510768  0.9987179717707081  0.2847221010475007   T   T   T
  0.3331102793893844  0.9987496832035861  0.2847741648652622   T   T   T
  0.6684726440114291  0.9958602362960678  0.2829491698956204   T   T   T
  0.9997619043552056  0.3331637838859038  0.2850591438287616   T   T   T
  0.3341815304252636  0.3333522190045325  0.2882149233501254   T   T   T
  0.6651245547281182  0.3333386060200272  0.2881284501565796   T   T   T
  0.9988377557336927  0.6673138581954804  0.2843245568990614   T   T   T
  0.3303420639043352  0.6721280365491765  0.2835470460748570   T   T   T
  0.6667535221172569  0.6672363130173806  0.2843401994097031   T   T   T
  0.5003822927464857  0.3326533970312234  0.4046982746890427   T   T   T
  0.5007793977925173  0.3322533068353241  0.4559445605173073   T   T   T
  0.6365368249125712  0.3293793736748801  0.3784622268838295   T   T   T
  0.3639569835707833  0.3362693021344481  0.3785562818765747   T   T   T
 
  0.00000000E+00  0.00000000E+00  0.00000000E+00
  0.00000000E+00  0.00000000E+00  0.00000000E+00
  0.00000000E+00  0.00000000E+00  0.00000000E+00
  0.00000000E+00  0.00000000E+00  0.00000000E+00
  0.00000000E+00  0.00000000E+00  0.00000000E+00
  0.00000000E+00  0.00000000E+00  0.00000000E+00
  0.00000000E+00  0.00000000E+00  0.00000000E+00
  0.00000000E+00  0.00000000E+00  0.00000000E+00
  0.00000000E+00  0.00000000E+00  0.00000000E+00
  0.00000000E+00  0.00000000E+00  0.00000000E+00
  0.00000000E+00  0.00000000E+00  0.00000000E+00
  0.00000000E+00  0.00000000E+00  0.00000000E+00
  0.00000000E+00  0.00000000E+00  0.00000000E+00
  0.00000000E+00  0.00000000E+00  0.00000000E+00
  0.00000000E+00  0.00000000E+00  0.00000000E+00
  0.00000000E+00  0.00000000E+00  0.00000000E+00
  0.00000000E+00  0.00000000E+00  0.00000000E+00
  0.00000000E+00  0.00000000E+00  0.00000000E+00
  0.00000000E+00  0.00000000E+00  0.00000000E+00
  0.00000000E+00  0.00000000E+00  0.00000000E+00
  0.00000000E+00  0.00000000E+00  0.00000000E+00
  0.00000000E+00  0.00000000E+00  0.00000000E+00
  0.00000000E+00  0.00000000E+00  0.00000000E+00
  0.00000000E+00  0.00000000E+00  0.00000000E+00
  0.00000000E+00  0.00000000E+00  0.00000000E+00
  0.00000000E+00  0.00000000E+00  0.00000000E+00
  0.00000000E+00  0.00000000E+00  0.00000000E+00
  0.00000000E+00  0.00000000E+00  0.00000000E+00
  0.00000000E+00  0.00000000E+00  0.00000000E+00
  0.00000000E+00  0.00000000E+00  0.00000000E+00
  0.00000000E+00  0.00000000E+00  0.00000000E+00
  0.00000000E+00  0.00000000E+00  0.00000000E+00
  0.00000000E+00  0.00000000E+00  0.00000000E+00
  0.00000000E+00  0.00000000E+00  0.00000000E+00
  0.00000000E+00  0.00000000E+00  0.00000000E+00
  0.00000000E+00  0.00000000E+00  0.00000000E+00
  0.00000000E+00  0.00000000E+00  0.00000000E+00
  0.00000000E+00  0.00000000E+00  0.00000000E+00
  0.00000000E+00  0.00000000E+00  0.00000000E+00
  0.00000000E+00  0.00000000E+00  0.00000000E+00
