Cu Rh Cu  N  O 
 1.0000000000000000
     7.8488852711706798    0.0000000000000000    0.0000000000000000
     0.0000000000000000    7.8488852711706798    0.0000000000000000
     0.0000000000000000    0.0000000000000000   22.3999999999999986
 Cu  Rh  Cu  N   O  
  31   1   4   1   3
Selective dynamics
Cartesian
  1.3081475451950948  1.3081475451950948  0.0000000000000000   F   F   F
  3.9244426355853399  1.3081475451950948  0.0000000000000000   F   F   F
  6.5407377259755854  1.3081475451950948  0.0000000000000000   F   F   F
  1.3081475451950948  3.9244426355853399  0.0000000000000000   F   F   F
  3.9244426355853399  3.9244426355853399  0.0000000000000000   F   F   F
  6.5407377259755854  3.9244426355853399  0.0000000000000000   F   F   F
  1.3081475451950948  6.5407377259755854  0.0000000000000000   F   F   F
  3.9244426355853399  6.5407377259755854  0.0000000000000000   F   F   F
  6.5407377259755854  6.5407377259755854  0.0000000000000000   F   F   F
  0.0000000000000000  0.0000000000000000  1.8499999999999772   F   F   F
  2.6162950903902451  0.0000000000000000  1.8499999999999772   F   F   F
  5.2325901807804298  0.0000000000000000  1.8499999999999772   F   F   F
  0.0000000000000000  2.6162950903902451  1.8499999999999772   F   F   F
  2.6162950903902451  2.6162950903902451  1.8499999999999772   F   F   F
  5.2325901807804298  2.6162950903902451  1.8499999999999772   F   F   F
  0.0000000000000000  5.2325901807804298  1.8499999999999772   F   F   F
  2.6162950903902451  5.2325901807804298  1.8499999999999772   F   F   F
  5.2325901807804298  5.2325901807804298  1.8499999999999772   F   F   F
  1.3084357888426319  1.2997341896678867  3.6646190231061100   F   F   F
  3.9246062759468145  1.3255996438231465  3.6828813159221823   F   F   F
  6.5189677198479741  1.3175951449432040  3.6866320510754491   F   F   F
  1.3254932352656152  3.9301538312406747  3.6752293740221131   F   F   F
  3.9232580845047895  3.9221796342076476  3.6992342676751186   F   F   F
  6.5352850703352701  3.9125756829776019  3.6832056748336903   F   F   F
  1.3399028496015564  6.5227280425423322  3.7097125997980158   F   F   F
  3.9022181872084563  6.5424213914879603  3.6953884995238040   F   F   F
  6.5597049214362952  6.5623089203109837  3.6520202209618327   F   F   F
  7.8425118970288148  7.8438086795966395  5.4420739301573970   F   F   F
  2.6093897684407579  0.0290369139426056  5.4630833487297199   F   F   F
  5.2255148814003221 -0.0000744143446979  5.4416077771711997   F   F   F
  7.8326197814933458  2.6076467964426322  5.4219340808289909   F   F   F
  2.5974157672479530  2.6368378250113884  5.5610741200064773   F   F   F
  5.2735563424701342  2.6188295064170570  5.5399627804375298   F   F   F
  7.8454938575325608  5.2399931982407830  5.4234099035130310   F   F   F
  2.6540439979234733  5.3186545684374096  5.6189119326840986   F   F   F
  5.2926763456195678  5.2985485316677154  5.3873182770696397   F   F   F
  4.2102535819527773  3.7285503297208771  8.2055378645119657   T   T   T
  4.0840157713526439  4.2577586457185834  9.2858807294372738   T   T   T
  5.1540058114913361  3.0335495874857616  7.7914953976062167   T   T   T
  2.7335911824834462  3.8682110850780345  7.0304690126464395   T   T   T
