Cu  N  O                                
   1.00000000000000     
     7.8488852711706780    0.0000000000000000    0.0000000000000000
     0.0000000000000000    7.8488852711706780    0.0000000000000000
     0.0000000000000000    0.0000000000000000   22.3999999999999986
   Cu   N    O 
    36     1     3
Selective dynamics
Direct
  0.1666666666666643  0.1666666666666643  0.0000000000000000   F   F   F
  0.5000000000000000  0.1666666666666643  0.0000000000000000   F   F   F
  0.8333333333333357  0.1666666666666643  0.0000000000000000   F   F   F
  0.1666666666666643  0.5000000000000000  0.0000000000000000   F   F   F
  0.5000000000000000  0.5000000000000000  0.0000000000000000   F   F   F
  0.8333333333333357  0.5000000000000000  0.0000000000000000   F   F   F
  0.1666666666666643  0.8333333333333357  0.0000000000000000   F   F   F
  0.5000000000000000  0.8333333333333357  0.0000000000000000   F   F   F
  0.8333333333333357  0.8333333333333357  0.0000000000000000   F   F   F
  0.0000000000000000  0.0000000000000000  0.0825892857142847   F   F   F
  0.3333333333333357  0.0000000000000000  0.0825892857142847   F   F   F
  0.6666666666666643  0.0000000000000000  0.0825892857142847   F   F   F
  0.0000000000000000  0.3333333333333357  0.0825892857142847   F   F   F
  0.3333333333333357  0.3333333333333357  0.0825892857142847   F   F   F
  0.6666666666666643  0.3333333333333357  0.0825892857142847   F   F   F
  0.0000000000000000  0.6666666666666643  0.0825892857142847   F   F   F
  0.3333333333333357  0.6666666666666643  0.0825892857142847   F   F   F
  0.6666666666666643  0.6666666666666643  0.0825892857142847   F   F   F
  0.1677669008607726  0.1678117641297234  0.1645212098140862   T   T   T
  0.4999317970381421  0.1688432478010244  0.1646869767759274   T   T   T
  0.8319758857236597  0.1677588249750901  0.1645465284445293   T   T   T
  0.1698826884469305  0.4988445838933848  0.1652375793060051   T   T   T
  0.4997674253653354  0.5012773634596623  0.1673728032159657   T   T   T
  0.8296024970679680  0.4988270376326379  0.1652497042049741   T   T   T
  0.1667721514026666  0.8329275055026655  0.1636356264554388   T   T   T
  0.4999287454538472  0.8294019790274929  0.1656340988100327   T   T   T
  0.8328925210040590  0.8328695389627571  0.1636830276715175   T   T   T
 -0.0000070800396533 -0.0010725350367131  0.2432759352166438   T   T   T
  0.3325845969663790 -0.0001972646608436  0.2421097258267645   T   T   T
  0.6673683981194235 -0.0002293465762942  0.2421795900886893   T   T   T
 -0.0004183801069612  0.3317374320018436  0.2426765495455561   T   T   T
  0.3273392000086461  0.3254034292193115  0.2467315850545539   T   T   T
  0.6717684685686993  0.3254822272851729  0.2467766428239615   T   T   T
 -0.0004108119881834  0.6659701525943573  0.2416066469303578   T   T   T
  0.3198538587987831  0.6763013314674561  0.2464590420746929   T   T   T
  0.6792864359664591  0.6760565326151935  0.2465677088750260   T   T   T
  0.4986884684902225  0.5259892149654896  0.3392177578384311   T   T   T
  0.4985845351181950  0.3629723025430329  0.3248493409093933   T   T   T
  0.6406565642381389  0.6053146734586171  0.3400918529179456   T   T   T
  0.3568831173904619  0.6055913389871483  0.3399912558246469   T   T   T
 
  0.00000000E+00  0.00000000E+00  0.00000000E+00
  0.00000000E+00  0.00000000E+00  0.00000000E+00
  0.00000000E+00  0.00000000E+00  0.00000000E+00
  0.00000000E+00  0.00000000E+00  0.00000000E+00
  0.00000000E+00  0.00000000E+00  0.00000000E+00
  0.00000000E+00  0.00000000E+00  0.00000000E+00
  0.00000000E+00  0.00000000E+00  0.00000000E+00
  0.00000000E+00  0.00000000E+00  0.00000000E+00
  0.00000000E+00  0.00000000E+00  0.00000000E+00
  0.00000000E+00  0.00000000E+00  0.00000000E+00
  0.00000000E+00  0.00000000E+00  0.00000000E+00
  0.00000000E+00  0.00000000E+00  0.00000000E+00
  0.00000000E+00  0.00000000E+00  0.00000000E+00
  0.00000000E+00  0.00000000E+00  0.00000000E+00
  0.00000000E+00  0.00000000E+00  0.00000000E+00
  0.00000000E+00  0.00000000E+00  0.00000000E+00
  0.00000000E+00  0.00000000E+00  0.00000000E+00
  0.00000000E+00  0.00000000E+00  0.00000000E+00
  0.00000000E+00  0.00000000E+00  0.00000000E+00
  0.00000000E+00  0.00000000E+00  0.00000000E+00
  0.00000000E+00  0.00000000E+00  0.00000000E+00
  0.00000000E+00  0.00000000E+00  0.00000000E+00
  0.00000000E+00  0.00000000E+00  0.00000000E+00
  0.00000000E+00  0.00000000E+00  0.00000000E+00
  0.00000000E+00  0.00000000E+00  0.00000000E+00
  0.00000000E+00  0.00000000E+00  0.00000000E+00
  0.00000000E+00  0.00000000E+00  0.00000000E+00
  0.00000000E+00  0.00000000E+00  0.00000000E+00
  0.00000000E+00  0.00000000E+00  0.00000000E+00
  0.00000000E+00  0.00000000E+00  0.00000000E+00
  0.00000000E+00  0.00000000E+00  0.00000000E+00
  0.00000000E+00  0.00000000E+00  0.00000000E+00
  0.00000000E+00  0.00000000E+00  0.00000000E+00
  0.00000000E+00  0.00000000E+00  0.00000000E+00
  0.00000000E+00  0.00000000E+00  0.00000000E+00
  0.00000000E+00  0.00000000E+00  0.00000000E+00
  0.00000000E+00  0.00000000E+00  0.00000000E+00
  0.00000000E+00  0.00000000E+00  0.00000000E+00
  0.00000000E+00  0.00000000E+00  0.00000000E+00
  0.00000000E+00  0.00000000E+00  0.00000000E+00
