Pd  N  O                                
   1.00000000000000     
     8.4216417639317793    0.0000000000000000    0.0000000000000000
     4.2108208819658897    7.2933557091369101    0.0000000000000000
     0.0000000000000000    0.0000000000000000   24.1683222747312989
   Pd   N    O 
    36     1     3
Selective dynamics
Direct
  0.0000000000000000  0.0000000000000000  0.0000000000000000   F   F   F
  0.3333333333333357  0.0000000000000000  0.0000000000000000   F   F   F
  0.6666666666666643  0.0000000000000000  0.0000000000000000   F   F   F
  0.0000000000000000  0.3333333333333357  0.0000000000000000   F   F   F
  0.3333333333333357  0.3333333333333357  0.0000000000000000   F   F   F
  0.6666666666666643  0.3333333333333357  0.0000000000000000   F   F   F
  0.0000000000000000  0.6666666666666643  0.0000000000000000   F   F   F
  0.3333333333333357  0.6666666666666643  0.0000000000000000   F   F   F
  0.6666666666666643  0.6666666666666643  0.0000000000000000   F   F   F
  0.1111111111111143  0.1111111111111143  0.0948382160179690   F   F   F
  0.4444444444444429  0.1111111111111143  0.0948382160179690   F   F   F
  0.7777777777777786  0.1111111111111143  0.0948382160179690   F   F   F
  0.1111111111111143  0.4444444444444429  0.0948382160179690   F   F   F
  0.4444444444444429  0.4444444444444429  0.0948382160179690   F   F   F
  0.7777777777777786  0.4444444444444429  0.0948382160179690   F   F   F
  0.1111111111111143  0.7777777777777786  0.0948382160179690   F   F   F
  0.4444444444444429  0.7777777777777786  0.0948382160179690   F   F   F
  0.7777777777777786  0.7777777777777786  0.0948382160179690   F   F   F
  0.8898487176721446  0.2259968501949032  0.1887584505343582   F   F   F
  0.2222728955686293  0.2264369298938504  0.1886069979891403   F   F   F
  0.5557302244323594  0.2265479962768353  0.1892361756203655   F   F   F
  0.8892006824967922  0.5604472102246945  0.1890697904331446   F   F   F
  0.2223833241060547  0.5578544907893956  0.1910630079636846   F   F   F
  0.5553900624229087  0.5608381872947348  0.1887517113198527   F   F   F
  0.8850294449529841  0.8950060963920308  0.1918259982198194   F   F   F
  0.2214950024752653  0.8925109100325201  0.1888356686295225   F   F   F
  0.5558137237458780  0.8938933729223351  0.1891994263873755   F   F   F
  0.0035843937298310  0.0103030694465502  0.2853197874409616   F   F   F
  0.3309813105784087  0.0066502406554534  0.2829928080524056   F   F   F
  0.6742191918696037  0.0103929616944143  0.2878195385761657   F   F   F
  0.0000788306927006  0.3447166038032563  0.2837970455350600   F   F   F
  0.3296643620552828  0.3515527094385931  0.2850780548357790   F   F   F
  0.6701498157592738  0.3461626438816197  0.2832372546215041   F   F   F
  0.0007283893117673  0.6779881083820953  0.2857771314259097   F   F   F
  0.3351056537295634  0.6783087344549301  0.2849780824180570   F   F   F
  0.6686430632775355  0.6771266652518833  0.2840685744877476   F   F   F
  0.4918249364364655  0.2232312529554505  0.4058203064891259   T   T   T
  0.3532248443927912  0.2972992781967250  0.4342317525577997   T   T   T
  0.6458033966295886  0.1980014014202709  0.4151352021034924   T   T   T
  0.4673731717264360  0.1517842233946638  0.3523547167736222   T   T   T
 
  0.00000000E+00  0.00000000E+00  0.00000000E+00
  0.00000000E+00  0.00000000E+00  0.00000000E+00
  0.00000000E+00  0.00000000E+00  0.00000000E+00
  0.00000000E+00  0.00000000E+00  0.00000000E+00
  0.00000000E+00  0.00000000E+00  0.00000000E+00
  0.00000000E+00  0.00000000E+00  0.00000000E+00
  0.00000000E+00  0.00000000E+00  0.00000000E+00
  0.00000000E+00  0.00000000E+00  0.00000000E+00
  0.00000000E+00  0.00000000E+00  0.00000000E+00
  0.00000000E+00  0.00000000E+00  0.00000000E+00
  0.00000000E+00  0.00000000E+00  0.00000000E+00
  0.00000000E+00  0.00000000E+00  0.00000000E+00
  0.00000000E+00  0.00000000E+00  0.00000000E+00
  0.00000000E+00  0.00000000E+00  0.00000000E+00
  0.00000000E+00  0.00000000E+00  0.00000000E+00
  0.00000000E+00  0.00000000E+00  0.00000000E+00
  0.00000000E+00  0.00000000E+00  0.00000000E+00
  0.00000000E+00  0.00000000E+00  0.00000000E+00
  0.00000000E+00  0.00000000E+00  0.00000000E+00
  0.00000000E+00  0.00000000E+00  0.00000000E+00
  0.00000000E+00  0.00000000E+00  0.00000000E+00
  0.00000000E+00  0.00000000E+00  0.00000000E+00
  0.00000000E+00  0.00000000E+00  0.00000000E+00
  0.00000000E+00  0.00000000E+00  0.00000000E+00
  0.00000000E+00  0.00000000E+00  0.00000000E+00
  0.00000000E+00  0.00000000E+00  0.00000000E+00
  0.00000000E+00  0.00000000E+00  0.00000000E+00
  0.00000000E+00  0.00000000E+00  0.00000000E+00
  0.00000000E+00  0.00000000E+00  0.00000000E+00
  0.00000000E+00  0.00000000E+00  0.00000000E+00
  0.00000000E+00  0.00000000E+00  0.00000000E+00
  0.00000000E+00  0.00000000E+00  0.00000000E+00
  0.00000000E+00  0.00000000E+00  0.00000000E+00
  0.00000000E+00  0.00000000E+00  0.00000000E+00
  0.00000000E+00  0.00000000E+00  0.00000000E+00
  0.00000000E+00  0.00000000E+00  0.00000000E+00
  0.00000000E+00  0.00000000E+00  0.00000000E+00
  0.00000000E+00  0.00000000E+00  0.00000000E+00
  0.00000000E+00  0.00000000E+00  0.00000000E+00
  0.00000000E+00  0.00000000E+00  0.00000000E+00
