Cu   Rh   Cu   N    O                   
   1.00000000000000     
     7.8488852711706798    0.0000000000000000    0.0000000000000000
     3.9244426355853399    6.7973340362233197    0.0000000000000000
     0.0000000000000000    0.0000000000000000   23.5447839840065001
   Cu   Rh   Cu   N    O 
    31     1     4     1     3
Selective dynamics
Direct
  0.0000000000000000  0.0000000000000000  0.0000000000000000   F   F   F
  0.3333333333333357  0.0000000000000000  0.0000000000000000   F   F   F
  0.6666666666666636  0.0000000000000000  0.0000000000000000   F   F   F
 -0.0000000000000000  0.3333333333333358  0.0000000000000000   F   F   F
  0.3333333333333348  0.3333333333333358  0.0000000000000000   F   F   F
  0.6666666666666636  0.3333333333333358  0.0000000000000000   F   F   F
 -0.0000000000000141  0.6666666666666643  0.0000000000000000   F   F   F
  0.3333333333333357  0.6666666666666643  0.0000000000000000   F   F   F
  0.6666666666666636  0.6666666666666643  0.0000000000000000   F   F   F
  0.1111111111111143  0.1111111111111143  0.0907290547856690   F   F   F
  0.4444444444444429  0.1111111111111143  0.0907290547856690   F   F   F
  0.7777777777777786  0.1111111111111143  0.0907290547856690   F   F   F
  0.1111111111111142  0.4444444444444429  0.0907290547856690   F   F   F
  0.4444444444444428  0.4444444444444429  0.0907290547856690   F   F   F
  0.7777777777777768  0.4444444444444429  0.0907290547856690   F   F   F
  0.1111111111111138  0.7777777777777787  0.0907290547856690   F   F   F
  0.4444444444444428  0.7777777777777787  0.0907290547856690   F   F   F
  0.7777777777777785  0.7777777777777787  0.0907290547856690   F   F   F
  0.8850233255631355  0.2265253203655798  0.1802613672299503   T   T   T
  0.2226619811271935  0.2246078633786291  0.1791861649751137   T   T   T
  0.5544402099384345  0.2254649315709583  0.1822091669317933   T   T   T
  0.8898863263438369  0.5580638272094338  0.1789368496153838   T   T   T
  0.2240640246081142  0.5538127953410532  0.1797796352492837   T   T   T
  0.5572282094685023  0.5556474096039788  0.1800590852728678   T   T   T
  0.8852601064687179  0.8937996116853908  0.1799239548671809   T   T   T
  0.2226784386900469  0.8922063668538212  0.1784470275763244   T   T   T
  0.5557492960927533  0.8927541966104736  0.1797647876974593   T   T   T
  0.0038303438257876  1.0026133387554199  0.2664941479950743   T   T   T
  0.3290450442328148  1.0008223201847137  0.2671874680634030   T   T   T
  0.6806187373940928  0.9930803115841329  0.2706335297610870   T   T   T
  0.0003338624101855  0.3389546236305463  0.2669200585003448   T   T   T
  0.3305096315817959  0.3413842830141103  0.2749506029809043   T   T   T
  0.6751191677749649  0.3400071841852617  0.2716057197699117   T   T   T
  0.0015610257817687  0.6704588010980409  0.2671001661845875   T   T   T
  0.3312392195511369  0.6760307831534054  0.2660477486032624   T   T   T
  0.6692697117384517  0.6701081223189485  0.2663331574124660   T   T   T
  0.4596050543729217  0.3078153438792141  0.3625652953678946   T   T   T
  0.3351949455837901  0.3813877759667590  0.4009705241553505   T   T   T
  0.6147496455700840  0.3319432409629504  0.3583491187658978   T   T   T
  0.4898926589901088  0.1148397557095118  0.3376054260999691   T   T   T
 
             NaN             NaN             NaN
             NaN             NaN             NaN
             NaN             NaN             NaN
             NaN             NaN             NaN
             NaN             NaN             NaN
             NaN             NaN             NaN
             NaN             NaN             NaN
             NaN             NaN             NaN
             NaN             NaN             NaN
             NaN             NaN             NaN
             NaN             NaN             NaN
             NaN             NaN             NaN
             NaN             NaN             NaN
             NaN             NaN             NaN
             NaN             NaN             NaN
             NaN             NaN             NaN
             NaN             NaN             NaN
             NaN             NaN             NaN
             NaN             NaN             NaN
             NaN             NaN             NaN
             NaN             NaN             NaN
             NaN             NaN             NaN
             NaN             NaN             NaN
             NaN             NaN             NaN
             NaN             NaN             NaN
             NaN             NaN             NaN
             NaN             NaN             NaN
             NaN             NaN             NaN
             NaN             NaN             NaN
             NaN             NaN             NaN
             NaN             NaN             NaN
             NaN             NaN             NaN
             NaN             NaN             NaN
             NaN             NaN             NaN
             NaN             NaN             NaN
             NaN             NaN             NaN
             NaN             NaN             NaN
             NaN             NaN             NaN
             NaN             NaN             NaN
             NaN             NaN             NaN
