Pd   N    O 
   1.00000000000000     
   8.4216417639317793   0.0000000000000000   0.0000000000000000
   4.2108208819658897   7.2933557091369101   0.0000000000000000
   0.0000000000000000   0.0000000000000000  24.1683222747312989
Pd   N    O 
36  1  3  
Selective dynamics
Direct
  0.0000000000000000  0.0000000000000000  0.0000000000000000 F F F
  0.3333333333333360  0.0000000000000000  0.0000000000000000 F F F
  0.6666666666666640  0.0000000000000000  0.0000000000000000 F F F
  0.0000000000000000  0.3333333333333360  0.0000000000000000 F F F
  0.3333333333333360  0.3333333333333360  0.0000000000000000 F F F
  0.6666666666666640  0.3333333333333360  0.0000000000000000 F F F
  0.0000000000000000  0.6666666666666640  0.0000000000000000 F F F
  0.3333333333333360  0.6666666666666640  0.0000000000000000 F F F
  0.6666666666666640  0.6666666666666640  0.0000000000000000 F F F
  0.1111111111111140  0.1111111111111140  0.0948382160179690 F F F
  0.4444444444444430  0.1111111111111140  0.0948382160179690 F F F
  0.7777777777777790  0.1111111111111140  0.0948382160179690 F F F
  0.1111111111111140  0.4444444444444430  0.0948382160179690 F F F
  0.4444444444444430  0.4444444444444430  0.0948382160179690 F F F
  0.7777777777777790  0.4444444444444430  0.0948382160179690 F F F
  0.1111111111111140  0.7777777777777790  0.0948382160179690 F F F
  0.4444444444444430  0.7777777777777790  0.0948382160179690 F F F
  0.7777777777777790  0.7777777777777790  0.0948382160179690 F F F
  0.8876073358774760  0.2218424780136420  0.1896685241103530 T T T
  0.2241245683008370  0.2210266648465190  0.1907743796127190 T T T
  0.5558522845378140  0.2214845657435940  0.1898571594731710 T T T
  0.8889505178133130  0.5544160405043780  0.1893039914891330 T T T
  0.2219715036103340  0.5549094899905140  0.1888512900073920 T T T
  0.5558393860888770  0.5537951255959110  0.1900275033548480 T T T
  0.8888754609635821  0.8879052838415480  0.1892013304823620 T T T
  0.2237013979594880  0.8865117494444310  0.1904748192930730 T T T
  0.5557051835266980  0.8874999732550110  0.1891108205067060 T T T
  0.9973634451734480  0.0003207321102607  0.2849178533801510 T T T
  0.3320983664139090  0.9980419351574950  0.2854845935187460 T T T
  0.6655494826403230  0.9968240677331290  0.2842809093656700 T T T
  0.9967913189096790  0.3313558962262280  0.2849026503669800 T T T
  0.3276233621959860  0.3298489921860790  0.2855408198219250 T T T
  0.6683461109913720  0.3302642941452450  0.2869641530085540 T T T
  0.9951241676563281  0.6673799392290010  0.2847925448671870 T T T
  0.3285593307696360  0.6712806718889440  0.2859046047279530 T T T
  0.6654702194479680  0.6664669850051650  0.2846054778102380 T T T
  0.4510071277882450  0.4192151229080640  0.4054384373803970 T T T
  0.3896542041335560  0.4366937041603760  0.4514069012577760 T T T
  0.6162145368870280  0.3457194790705880  0.3918520168940060 T T T
  0.3013759855438990  0.5025744718454060  0.3536349753516890 T T T
