Pd   N    O 
   1.00000000000000     
   8.4216417639317793   0.0000000000000000   0.0000000000000000
   4.2108208819658897   7.2933557091369101   0.0000000000000000
   0.0000000000000000   0.0000000000000000  24.1683222747312989
Pd   N    O 
36  1  3  
Selective dynamics
Direct
  0.0000000000000000  0.0000000000000000  0.0000000000000000 F F F
  0.3333333333333357  0.0000000000000000  0.0000000000000000 F F F
  0.6666666666666643  0.0000000000000000  0.0000000000000000 F F F
  0.0000000000000000  0.3333333333333357  0.0000000000000000 F F F
  0.3333333333333357  0.3333333333333357  0.0000000000000000 F F F
  0.6666666666666643  0.3333333333333357  0.0000000000000000 F F F
  1.0000000000000000  0.6666666666666649  0.0000000000000000 F F F
  0.3333333333333354  0.6666666666666649  0.0000000000000000 F F F
  0.6666666666666640  0.6666666666666649  0.0000000000000000 F F F
  0.1111111111111142  0.1111111111111143  0.0948382160179690 F F F
  0.4444444444444428  0.1111111111111143  0.0948382160179690 F F F
  0.7777777777777778  0.1111111111111143  0.0948382160179690 F F F
  0.1111111111111142  0.4444444444444429  0.0948382160179690 F F F
  0.4444444444444429  0.4444444444444429  0.0948382160179690 F F F
  0.7777777777777786  0.4444444444444429  0.0948382160179690 F F F
  0.1111111111111143  0.7777777777777786  0.0948382160179690 F F F
  0.4444444444444429  0.7777777777777786  0.0948382160179690 F F F
  0.7777777777777786  0.7777777777777786  0.0948382160179690 F F F
  0.8916255453393795  0.2250587487947329  0.1887445003301442 T T T
  0.2255797121310983  0.2269634070781316  0.1906801765219290 T T T
  0.5554687102700891  0.2263878589670272  0.1910081148312624 T T T
  0.8911965248540679  0.5590648092218785  0.1888362404614349 T T T
  0.2260012815763885  0.5549341454210632  0.1916694731348605 T T T
  0.5572714849251816  0.5583904117790953  0.1888437484085830 T T T
  0.8898153653691503  0.8924902350753178  0.1907264997666349 T T T
  0.2244544120616336  0.8926009275755149  0.1902106438096311 T T T
  0.5572078824535499  0.8922993907383445  0.1885730872066877 T T T
  0.0049664402682360  0.0050944612796883  0.2850573020856298 T T T
  0.3315857364376399  0.0003425533710153  0.2848506995795672 T T T
  0.6834580269606872  0.9969107009434328  0.2854733798858368 T T T
  0.0041670357278366  0.3409512202628689  0.2840449532261386 T T T
  0.3439343264842554  0.3491099888944407  0.3033139326462441 T T T
  0.6760984861035283  0.3407381867808291  0.2838841925873546 T T T
  0.0088066356604329  0.6692550209240308  0.2855731860549274 T T T
  0.3382357124777205  0.6705171413544423  0.2850464466168849 T T T
  0.6737145341719800  0.6692672968787529  0.2833071752932547 T T T
  0.4507495087305209  0.3011653255757349  0.4013575654637307 T T T
  0.3335392980905035  0.3221128668515220  0.4349529763568585 T T T
  0.6156069612638856  0.2410954236349990  0.4087508807825356 T T T
  0.4616359157048822  0.0885286088669365  0.3327476873233361 T T T
