Rh   N    O                             
   1.00000000000000     
     8.2095097295758208    0.0000000000000000    0.0000000000000000
     4.1047548647879104    7.1096439784281698    0.0000000000000000
     0.0000000000000000    0.0000000000000000   23.9373821670554001
   Rh   N    O 
    36     1     3
Selective dynamics
Direct
  0.0000000000000000  0.0000000000000000  0.0000000000000000   F   F   F
  0.3333333333333357  0.0000000000000000  0.0000000000000000   F   F   F
  0.6666666666666642  0.0000000000000000  0.0000000000000000   F   F   F
 -0.0000000000000000  0.3333333333333358  0.0000000000000000   F   F   F
  0.3333333333333356  0.3333333333333358  0.0000000000000000   F   F   F
  0.6666666666666642  0.3333333333333358  0.0000000000000000   F   F   F
  0.9999999999999714  0.6666666666666644  0.0000000000000000   F   F   F
  0.3333333333333356  0.6666666666666644  0.0000000000000000   F   F   F
  0.6666666666666643  0.6666666666666644  0.0000000000000000   F   F   F
  0.1111111111111143  0.1111111111111143  0.0933412653969725   F   F   F
  0.4444444444444428  0.1111111111111143  0.0933412653969725   F   F   F
  0.7777777777777786  0.1111111111111143  0.0933412653969725   F   F   F
  0.1111111111111142  0.4444444444444429  0.0933412653969725   F   F   F
  0.4444444444444428  0.4444444444444429  0.0933412653969725   F   F   F
  0.7777777777777785  0.4444444444444429  0.0933412653969725   F   F   F
  0.1111111111111143  0.7777777777777786  0.0933412653969725   F   F   F
  0.4444444444444428  0.7777777777777786  0.0933412653969725   F   F   F
  0.7777777777777786  0.7777777777777786  0.0933412653969725   F   F   F
  0.8890528627858144  0.2228793351673217  0.1847760418345527   T   T   T
  0.2254993090120477  0.2238803485966930  0.1854295849821631   T   T   T
  0.5566501729195660  0.2212533156535386  0.1845292101711197   T   T   T
  0.8903103737336054  0.5553386376690082  0.1834591882150221   T   T   T
  0.2243302008119550  0.5534370926005200  0.1848527357320019   T   T   T
  0.5570314580509123  0.5537649737454605  0.1840784574131383   T   T   T
  0.8899065679285891  0.8889134942908330  0.1844219656707617   T   T   T
  0.2229662261116355  0.8893574657517378  0.1842967935120769   T   T   T
  0.5559808619246474  0.8885796227738169  0.1827242543802272   T   T   T
  0.0018933447111362  0.0003857417207057  0.2748507747490848   T   T   T
  0.3312070354029463  0.9962442374732234  0.2775813255163053   T   T   T
  0.6755247122949534  0.9898084200822214  0.2774218116059377   T   T   T
  0.9978462035289101  0.3382503651448082  0.2752697416201915   T   T   T
  0.3420208869140307  0.3427680992896072  0.2934852906909210   T   T   T
  0.6728616623956137  0.3375227262224363  0.2778566843700596   T   T   T
  0.0032182064493104  0.6650177032577242  0.2756245434917873   T   T   T
  0.3322370505936582  0.6725656911631324  0.2744788543068856   T   T   T
  0.6736173335560003  0.6609084843959389  0.2747587989162601   T   T   T
  0.4605723374896306  0.3712340880336358  0.3724568258600706   T   T   T
  0.4113746852233665  0.3680112075164620  0.4201554694077383   T   T   T
  0.6308554115784312  0.3453804978323006  0.3642929870811150   T   T   T
  0.4574046742957601  0.0791242909357264  0.3297119591644360   T   T   T
 
             NaN             NaN             NaN
             NaN             NaN             NaN
             NaN             NaN             NaN
             NaN             NaN             NaN
             NaN             NaN             NaN
             NaN             NaN             NaN
             NaN             NaN             NaN
             NaN             NaN             NaN
             NaN             NaN             NaN
             NaN             NaN             NaN
             NaN             NaN             NaN
             NaN             NaN             NaN
             NaN             NaN             NaN
             NaN             NaN             NaN
             NaN             NaN             NaN
             NaN             NaN             NaN
             NaN             NaN             NaN
             NaN             NaN             NaN
             NaN             NaN             NaN
             NaN             NaN             NaN
             NaN             NaN             NaN
             NaN             NaN             NaN
             NaN             NaN             NaN
             NaN             NaN             NaN
             NaN             NaN             NaN
             NaN             NaN             NaN
             NaN             NaN             NaN
             NaN             NaN             NaN
             NaN             NaN             NaN
             NaN             NaN             NaN
             NaN             NaN             NaN
             NaN             NaN             NaN
             NaN             NaN             NaN
             NaN             NaN             NaN
             NaN             NaN             NaN
             NaN             NaN             NaN
             NaN             NaN             NaN
             NaN             NaN             NaN
             NaN             NaN             NaN
             NaN             NaN             NaN
