Pd   N    O                             
   1.00000000000000     
     8.4216417639317793    0.0000000000000000    0.0000000000000000
     0.0000000000000000    8.4216417639317793    0.0000000000000000
     0.0000000000000000    0.0000000000000000   22.9400000000000013
   Pd   N    O 
    36     1     3
Selective dynamics
Direct
  0.1666666666666643  0.1666666666666643  0.0000000000000000   F   F   F
  0.5000000000000000  0.1666666666666643  0.0000000000000000   F   F   F
  0.8333333333333356  0.1666666666666643  0.0000000000000000   F   F   F
  0.1666666666666643  0.5000000000000000  0.0000000000000000   F   F   F
  0.5000000000000000  0.5000000000000000  0.0000000000000000   F   F   F
  0.8333333333333356  0.5000000000000000  0.0000000000000000   F   F   F
  0.1666666666666643  0.8333333333333356  0.0000000000000000   F   F   F
  0.5000000000000000  0.8333333333333356  0.0000000000000000   F   F   F
  0.8333333333333356  0.8333333333333356  0.0000000000000000   F   F   F
  0.0000000000000000  0.0000000000000000  0.0865300784655645   F   F   F
  0.3333333333333357  0.0000000000000000  0.0865300784655645   F   F   F
  0.6666666666666643  0.0000000000000000  0.0865300784655645   F   F   F
  0.0000000000000000  0.3333333333333357  0.0865300784655645   F   F   F
  0.3333333333333357  0.3333333333333357  0.0865300784655645   F   F   F
  0.6666666666666643  0.3333333333333357  0.0865300784655645   F   F   F
  0.0000000000000000  0.6666666666666643  0.0865300784655645   F   F   F
  0.3333333333333357  0.6666666666666643  0.0865300784655645   F   F   F
  0.6666666666666643  0.6666666666666643  0.0865300784655645   F   F   F
  0.1658161545145630  0.1664537288865901  0.1725162540388683   T   T   T
  0.5002281118230250  0.1680511189995736  0.1734700572106986   T   T   T
  0.8335132556678955  0.1685120995471402  0.1736961021897946   T   T   T
  0.1658182813309316  0.5002061489438594  0.1725148260591801   T   T   T
  0.5002280686452750  0.4986159932969255  0.1734752354390146   T   T   T
  0.8335257644666938  0.4981615690603625  0.1737013782199038   T   T   T
  0.1666162911648336  0.8333272821953631  0.1720081525064994   T   T   T
  0.5006615981398036  0.8333350733404479  0.1721389467469516   T   T   T
  0.8328995151023675  0.8333334476347009  0.1721605616757484   T   T   T
  0.9993665468947678  0.9964489660163743  0.2582045855047573   T   T   T
  0.3341536350045092  0.9966710401910915  0.2579535153647784   T   T   T
  0.6670081804170355  0.9983718504890945  0.2587935348385155   T   T   T
  0.9926598439887505  0.3333600270132447  0.2622704291267575   T   T   T
  0.3385400436739785  0.3333241332475429  0.2592452537400380   T   T   T
  0.6670952737806733  0.3333349805893761  0.2614671458866992   T   T   T
  0.9993744442296476  0.6702125172523810  0.2582087057019454   T   T   T
  0.3341334657797820  0.6699735461610712  0.2579517254256798   T   T   T
  0.6670045730720248  0.6683221085155577  0.2587923487266818   T   T   T
  0.3798457006111549  0.3323973570330626  0.4051386843131288   T   T   T
  0.3273951945923800  0.3324170988519157  0.4553117962263687   T   T   T
  0.5224242548571242  0.3361750467750626  0.3912285031298719   T   T   T
  0.1699340362257841  0.3331675923188279  0.3165179495576216   T   T   T
 
             NaN             NaN             NaN
             NaN             NaN             NaN
             NaN             NaN             NaN
             NaN             NaN             NaN
             NaN             NaN             NaN
             NaN             NaN             NaN
             NaN             NaN             NaN
             NaN             NaN             NaN
             NaN             NaN             NaN
             NaN             NaN             NaN
             NaN             NaN             NaN
             NaN             NaN             NaN
             NaN             NaN             NaN
             NaN             NaN             NaN
             NaN             NaN             NaN
             NaN             NaN             NaN
             NaN             NaN             NaN
             NaN             NaN             NaN
             NaN             NaN             NaN
             NaN             NaN             NaN
             NaN             NaN             NaN
             NaN             NaN             NaN
             NaN             NaN             NaN
             NaN             NaN             NaN
             NaN             NaN             NaN
             NaN             NaN             NaN
             NaN             NaN             NaN
             NaN             NaN             NaN
             NaN             NaN             NaN
             NaN             NaN             NaN
             NaN             NaN             NaN
             NaN             NaN             NaN
             NaN             NaN             NaN
             NaN             NaN             NaN
             NaN             NaN             NaN
             NaN             NaN             NaN
             NaN             NaN             NaN
             NaN             NaN             NaN
             NaN             NaN             NaN
             NaN             NaN             NaN
