Cu   N    O 
   1.00000000000000     
   7.8488852711706798   0.0000000000000000   0.0000000000000000
   3.9244426355853399   6.7973340362233197   0.0000000000000000
   0.0000000000000000   0.0000000000000000  23.5447839840065001
Cu   N    O 
36  1  3  
Selective dynamics
Direct
  0.0000000000000000  0.0000000000000000  0.0000000000000000 F F F
  0.3333333333333360  0.0000000000000000  0.0000000000000000 F F F
  0.6666666666666640  0.0000000000000000  0.0000000000000000 F F F
  0.0000000000000000  0.3333333333333360  0.0000000000000000 F F F
  0.3333333333333360  0.3333333333333360  0.0000000000000000 F F F
  0.6666666666666640  0.3333333333333360  0.0000000000000000 F F F
  0.9999999999999860  0.6666666666666640  0.0000000000000000 F F F
  0.3333333333333360  0.6666666666666640  0.0000000000000000 F F F
  0.6666666666666640  0.6666666666666640  0.0000000000000000 F F F
  0.1111111111111140  0.1111111111111140  0.0907290547856689 F F F
  0.4444444444444430  0.1111111111111140  0.0907290547856689 F F F
  0.7777777777777790  0.1111111111111140  0.0907290547856689 F F F
  0.1111111111111140  0.4444444444444430  0.0907290547856689 F F F
  0.4444444444444430  0.4444444444444430  0.0907290547856689 F F F
  0.7777777777777790  0.4444444444444430  0.0907290547856689 F F F
  0.1111111111111140  0.7777777777777790  0.0907290547856689 F F F
  0.4444444444444430  0.7777777777777790  0.0907290547856689 F F F
  0.7777777777777790  0.7777777777777790  0.0907290547856689 F F F
  0.8903013489243460  0.2214849378722120  0.1781859824457540 T T T
  0.2248216072331320  0.2229248669798450  0.1795625357858770 T T T
  0.5548448703510970  0.2226244814529680  0.1795307654433320 T T T
  0.8916338116142700  0.5561973510268100  0.1797621530317460 T T T
  0.2228877573534830  0.5553633768422730  0.1802306560639120 T T T
  0.5547436189743490  0.5559015574521380  0.1795979879746600 T T T
  0.8916443378483760  0.8854937972994250  0.1797758116147960 T T T
  0.2249488199630680  0.8854321404258910  0.1796402882953100 T T T
  0.5567634279507420  0.8882930031909240  0.1783428128655520 T T T
  0.9996837039772470  0.0027667493543504  0.2660223630929580 T T T
  0.3357165299545030  0.9988899051482960  0.2661367326355020 T T T
  0.6674686751193660  0.9987491321831070  0.2661766342410980 T T T
  0.9994375726375820  0.3309661934189240  0.2659903783459470 T T T
  0.3383586070763870  0.3247843719410780  0.2701078848889010 T T T
  0.6741458670281940  0.3296150339314540  0.2660907723267340 T T T
  0.9928105460647320  0.6702323558609320  0.2713273895338940 T T T
  0.3384945689571520  0.6702462011930380  0.2705211075542590 T T T
  0.6674621611869750  0.6672810733885510  0.2661869667063930 T T T
  0.3330622898233100  0.4978386632405860  0.4016153090071340 T T T
  0.2081974017495940  0.5561824267697230  0.4389714748565510 T T T
  0.5125831814537700  0.4113415334897180  0.4063028553162200 T T T
  0.2391532671314560  0.5466623702008490  0.3276249228466310 T T T
