Cu   Ru   Cu   N    O 
   1.00000000000000     
   7.8488852711706798   0.0000000000000000   0.0000000000000000
   3.9244426355853399   6.7973340362233197   0.0000000000000000
   0.0000000000000000   0.0000000000000000  23.5447839840065001
Cu   Ru   Cu   N    O 
31  1  4  1  3  
Selective dynamics
Direct
  0.0000000000000000  0.0000000000000000  0.0000000000000000 F F F
  0.3333333333333357  0.0000000000000000  0.0000000000000000 F F F
  0.6666666666666643  0.0000000000000000  0.0000000000000000 F F F
  0.0000000000000000  0.3333333333333357  0.0000000000000000 F F F
  0.3333333333333357  0.3333333333333357  0.0000000000000000 F F F
  0.6666666666666643  0.3333333333333357  0.0000000000000000 F F F
  0.0000000000000000  0.6666666666666643  0.0000000000000000 F F F
  0.3333333333333357  0.6666666666666643  0.0000000000000000 F F F
  0.6666666666666643  0.6666666666666643  0.0000000000000000 F F F
  0.1111111111111143  0.1111111111111143  0.0907290547856689 F F F
  0.4444444444444429  0.1111111111111143  0.0907290547856689 F F F
  0.7777777777777786  0.1111111111111143  0.0907290547856689 F F F
  0.1111111111111143  0.4444444444444429  0.0907290547856689 F F F
  0.4444444444444429  0.4444444444444429  0.0907290547856689 F F F
  0.7777777777777786  0.4444444444444429  0.0907290547856689 F F F
  0.1111111111111143  0.7777777777777786  0.0907290547856689 F F F
  0.4444444444444429  0.7777777777777786  0.0907290547856689 F F F
  0.7777777777777786  0.7777777777777786  0.0907290547856689 F F F
  0.8856119809328634  0.2233423301545124  0.1816409949046896 T T T
  0.2229096514799663  0.2224744698724474  0.1802561391874782 T T T
  0.5533676907598891  0.2246150153192668  0.1812411116424584 T T T
  0.8890086819407229  0.5552632869934501  0.1807921790035243 T T T
  0.2217690349881325  0.5532828143055226  0.1799644544304393 T T T
  0.5575744744991072  0.5536675326812631  0.1811779351774785 T T T
  0.8886539710832866  0.8892408694199576  0.1806777404307581 T T T
  0.2211854135093746  0.8904027255670746  0.1799006853788604 T T T
  0.5547392117016791  0.8887958816092658  0.1805460729131342 T T T
  0.0014579358952429  0.9986443442634220  0.2704470981039707 T T T
  0.3324759466013010  0.9992006526746030  0.2705769187078285 T T T
  0.6681421255750982  0.9960443387343370  0.2694680036900828 T T T
  0.0011009023592804  0.3333765008257374  0.2701605880588410 T T T
  0.3319451385569318  0.3341694656409624  0.2724926376116871 T T T
  0.6696438695591560  0.3332989314743915  0.2736861262873173 T T T
  0.9982514863220490  0.6681621645089356  0.2707453974151698 T T T
  0.3302334707691706  0.6710438758434867  0.2670449865126567 T T T
  0.6668953569121218  0.6680701173218430  0.2703604264028753 T T T
  0.4993235769194603  0.3369075454231725  0.3904592410860850 T T T
  0.4873653188910879  0.3397838716653503  0.4429440766718423 T T T
  0.6447919782512680  0.3349658583211362  0.3649457550918685 T T T
  0.3567139357035909  0.3359622959120355  0.3609228237431702 T T T
