Pd   N    O 
   1.00000000000000     
   8.4216417639317793   0.0000000000000000   0.0000000000000000
   4.2108208819658897   7.2933557091369101   0.0000000000000000
   0.0000000000000000   0.0000000000000000  24.1683222747312989
Pd   N    O 
36  1  3  
Selective dynamics
Direct
  0.0000000000000000  0.0000000000000000  0.0000000000000000 F F F
  0.3333333333333357  0.0000000000000000  0.0000000000000000 F F F
  0.6666666666666643  0.0000000000000000  0.0000000000000000 F F F
  0.0000000000000000  0.3333333333333357  0.0000000000000000 F F F
  0.3333333333333357  0.3333333333333357  0.0000000000000000 F F F
  0.6666666666666643  0.3333333333333357  0.0000000000000000 F F F
  1.0000000000000000  0.6666666666666649  0.0000000000000000 F F F
  0.3333333333333354  0.6666666666666649  0.0000000000000000 F F F
  0.6666666666666640  0.6666666666666649  0.0000000000000000 F F F
  0.1111111111111142  0.1111111111111143  0.0948382160179690 F F F
  0.4444444444444428  0.1111111111111143  0.0948382160179690 F F F
  0.7777777777777778  0.1111111111111143  0.0948382160179690 F F F
  0.1111111111111142  0.4444444444444429  0.0948382160179690 F F F
  0.4444444444444429  0.4444444444444429  0.0948382160179690 F F F
  0.7777777777777786  0.4444444444444429  0.0948382160179690 F F F
  0.1111111111111143  0.7777777777777786  0.0948382160179690 F F F
  0.4444444444444429  0.7777777777777786  0.0948382160179690 F F F
  0.7777777777777786  0.7777777777777786  0.0948382160179690 F F F
  0.8871280873897270  0.2263550486654060  0.1894954590661605 T T T
  0.2205155676651033  0.2258578226626807  0.1882844239436996 T T T
  0.5544527041315545  0.2265150538995852  0.1893221477340652 T T T
  0.8877428711728300  0.5596854001319085  0.1891333359421773 T T T
  0.2203927227795290  0.5581291239037426  0.1903030638947083 T T T
  0.5551332980636993  0.5582769677321059  0.1897675819736241 T T T
  0.8836477998565313  0.8943643719180900  0.1913360383321114 T T T
  0.2197685889029171  0.8915467327512212  0.1883597266275898 T T T
  0.5546696352099937  0.8926349310403605  0.1889816406696326 T T T
  0.0013923937391402  0.0077634267305016  0.2849903131102235 T T T
  0.3283582692951291  0.0051657415375188  0.2821509625049164 T T T
  0.6693561894578334  0.0092026734419909  0.2869101598536558 T T T
  0.9982738991985912  0.3427894492424977  0.2839329955103909 T T T
  0.3275929680924992  0.3481985140944414  0.2839131843773058 T T T
  0.6672113030054801  0.3436601505269476  0.2866730215677994 T T T
  0.9977251175041696  0.6761918503085506  0.2853843567773299 T T T
  0.3312285212677611  0.6770874203705036  0.2847429425984315 T T T
  0.6656045857837199  0.6760142650692927  0.2842465536538316 T T T
  0.5122965414972573  0.2398787443083406  0.3999362485612422 T T T
  0.4210504964593400  0.2708990158554438  0.4422360071325224 T T T
  0.6349360124453489  0.2801062977065114  0.3914076490844501 T T T
  0.4734914492630902  0.1522050911406236  0.3578320144243905 T T T
