Ni   N    O 
   1.00000000000000     
   7.5306872196367305   0.0000000000000000   0.0000000000000000
   0.0000000000000000   7.5306872196367305   0.0000000000000000
   0.0000000000000000   0.0000000000000000  22.1000000000000014
Ni   N    O 
36  1  3  
Selective dynamics
Direct
  0.1666666666666640  0.1666666666666640  0.0000000000000000 F F F
  0.5000000000000000  0.1666666666666640  0.0000000000000000 F F F
  0.8333333333333360  0.1666666666666640  0.0000000000000000 F F F
  0.1666666666666640  0.5000000000000000  0.0000000000000000 F F F
  0.5000000000000000  0.5000000000000000  0.0000000000000000 F F F
  0.8333333333333360  0.5000000000000000  0.0000000000000000 F F F
  0.1666666666666640  0.8333333333333360  0.0000000000000000 F F F
  0.5000000000000000  0.8333333333333360  0.0000000000000000 F F F
  0.8333333333333360  0.8333333333333360  0.0000000000000000 F F F
  0.0000000000000000  0.0000000000000000  0.0803167420814503 F F F
  0.3333333333333360  0.0000000000000000  0.0803167420814503 F F F
  0.6666666666666640  0.0000000000000000  0.0803167420814503 F F F
  0.0000000000000000  0.3333333333333360  0.0803167420814503 F F F
  0.3333333333333360  0.3333333333333360  0.0803167420814503 F F F
  0.6666666666666640  0.3333333333333360  0.0803167420814503 F F F
  0.0000000000000000  0.6666666666666640  0.0803167420814503 F F F
  0.3333333333333360  0.6666666666666640  0.0803167420814503 F F F
  0.6666666666666640  0.6666666666666640  0.0803167420814503 F F F
  0.1701758690720540  0.1685775344394710  0.1611428046389420 T T T
  0.5010426342528830  0.1696057376816000  0.1622617790455150 T T T
  0.8349817237532090  0.1705434424153220  0.1617160006415620 T T T
  0.1692365358218450  0.4979082288520830  0.1586693238527490 T T T
  0.4998668138669730  0.4965850168761680  0.1617143721854650 T T T
  0.8301224003825211  0.4985817482722300  0.1612046279016400 T T T
  0.1653745032803040  0.8342262049124970  0.1599081918888670 T T T
  0.4975422922012740  0.8308468615571200  0.1607495995259430 T T T
  0.8339024426331040  0.8329287673925730  0.1604327261394400 T T T
  0.0006103788367824  0.0028681158734329  0.2378792190247550 T T T
  0.3337848932326320  0.9957294115633460  0.2374140732996390 T T T
  0.6688017564808320  0.9961649589119330  0.2371023067964520 T T T
  0.0060341721753190  0.3386537797508990  0.2399729680142360 T T T
  0.3360955101334180  0.3270776556103390  0.2496549675452330 T T T
  0.6781393867764440  0.3339764887998270  0.2450143074079630 T T T
  0.9948678270390020  0.6720208400223630  0.2403502676436420 T T T
  0.3270426124493040  0.6644573549037390  0.2398681717594120 T T T
  0.6632484089139580  0.6692962227129799  0.2376082380721910 T T T
  0.4466152495323000  0.2959939916697960  0.3346267416026190 T T T
  0.3834781825920860  0.2801078133140250  0.3842032810901090 T T T
  0.6185024261885350  0.3051042046127390  0.3291833709653030 T T T
  0.1849598043618740  0.4856786154267280  0.2888004541672870 T T T
