Pd   N    O 
   1.00000000000000     
   8.4216417639317793   0.0000000000000000   0.0000000000000000
   0.0000000000000000   8.4216417639317793   0.0000000000000000
   0.0000000000000000   0.0000000000000000  22.9400000000000013
Pd   N    O 
36  1  3  
Selective dynamics
Direct
  0.1666666666666643  0.1666666666666643  0.0000000000000000 F F F
  0.5000000000000000  0.1666666666666643  0.0000000000000000 F F F
  0.8333333333333356  0.1666666666666643  0.0000000000000000 F F F
  0.1666666666666643  0.5000000000000000  0.0000000000000000 F F F
  0.5000000000000000  0.5000000000000000  0.0000000000000000 F F F
  0.8333333333333356  0.5000000000000000  0.0000000000000000 F F F
  0.1666666666666643  0.8333333333333356  0.0000000000000000 F F F
  0.5000000000000000  0.8333333333333356  0.0000000000000000 F F F
  0.8333333333333356  0.8333333333333356  0.0000000000000000 F F F
  0.0000000000000000  0.0000000000000000  0.0865300784655645 F F F
  0.3333333333333357  0.0000000000000000  0.0865300784655645 F F F
  0.6666666666666643  0.0000000000000000  0.0865300784655645 F F F
  0.0000000000000000  0.3333333333333357  0.0865300784655645 F F F
  0.3333333333333357  0.3333333333333357  0.0865300784655645 F F F
  0.6666666666666643  0.3333333333333357  0.0865300784655645 F F F
  0.0000000000000000  0.6666666666666643  0.0865300784655645 F F F
  0.3333333333333357  0.6666666666666643  0.0865300784655645 F F F
  0.6666666666666643  0.6666666666666643  0.0865300784655645 F F F
  0.1673955166744585  0.1675276845561193  0.1732665304594005 T T T
  0.4997930604835423  0.1688269056554447  0.1735555139769612 T T T
  0.8335202139251138  0.1674970792475451  0.1726815020891557 T T T
  0.1673954973089264  0.4991384166302958  0.1732659451817355 T T T
  0.4997927344309810  0.4978408069845541  0.1735555009845250 T T T
  0.8335199650499066  0.4991688574709644  0.1726813773770594 T T T
  0.1666338496895418  0.8333333380633841  0.1719974079062883 T T T
  0.5005742423244982  0.8333342143920216  0.1720740413305793 T T T
  0.8332609735086607  0.8333337489064441  0.1721303926176161 T T T
  0.9997958434508682  0.9982172788616432  0.2580982698628947 T T T
  0.3340070785368081  0.9976360482163064  0.2576720857670409 T T T
  0.6681710655273475  0.9984565153978516  0.2583351332180239 T T T
  0.9974868198649208  0.3333329661117141  0.2589624833727472 T T T
  0.3420234625120486  0.3333343915401804  0.2620584506821972 T T T
  0.6715053126414663  0.3333340230800582  0.2605434243639032 T T T
  0.9997971645811692  0.6684481936460420  0.2580981868480960 T T T
  0.3340066543672089  0.6690306194335319  0.2576717673100887 T T T
  0.6681697461086404  0.6682110622021162  0.2583349783086760 T T T
  0.3506202138111155  0.3333326784196792  0.3898972512874821 T T T
  0.2947463921207145  0.3333332764750709  0.4395066785539874 T T T
  0.4952864983055800  0.3333312147207553  0.3770703043718258 T T T
  0.2427449778287091  0.3333336525947151  0.3454638016431878 T T T
