Pd  N  O                                
   1.00000000000000     
     8.4216417639317811    0.0000000000000000    0.0000000000000000
     0.0000000000000000    8.4216417639317811    0.0000000000000000
     0.0000000000000000    0.0000000000000000   22.9400000000000013
   Pd   N    O 
    36     1     3
Selective dynamics
Direct
  0.1666666666666643  0.1666666666666643  0.0000000000000000   F   F   F
  0.5000000000000000  0.1666666666666643  0.0000000000000000   F   F   F
  0.8333333333333357  0.1666666666666643  0.0000000000000000   F   F   F
  0.1666666666666643  0.5000000000000000  0.0000000000000000   F   F   F
  0.5000000000000000  0.5000000000000000  0.0000000000000000   F   F   F
  0.8333333333333357  0.5000000000000000  0.0000000000000000   F   F   F
  0.1666666666666643  0.8333333333333357  0.0000000000000000   F   F   F
  0.5000000000000000  0.8333333333333357  0.0000000000000000   F   F   F
  0.8333333333333357  0.8333333333333357  0.0000000000000000   F   F   F
  0.0000000000000000  0.0000000000000000  0.0865300784655645   F   F   F
  0.3333333333333357  0.0000000000000000  0.0865300784655645   F   F   F
  0.6666666666666643  0.0000000000000000  0.0865300784655645   F   F   F
  0.0000000000000000  0.3333333333333357  0.0865300784655645   F   F   F
  0.3333333333333357  0.3333333333333357  0.0865300784655645   F   F   F
  0.6666666666666643  0.3333333333333357  0.0865300784655645   F   F   F
  0.0000000000000000  0.6666666666666643  0.0865300784655645   F   F   F
  0.3333333333333357  0.6666666666666643  0.0865300784655645   F   F   F
  0.6666666666666643  0.6666666666666643  0.0865300784655645   F   F   F
  0.1708526860044016  0.1690743473039414  0.1742026750154213   T   T   T
  0.4985743954328951  0.1697564223107305  0.1742494995840499   T   T   T
  0.8318218862114580  0.1685283652036797  0.1732768437551614   T   T   T
  0.1708412032540703  0.4975825216573738  0.1741771340106877   T   T   T
  0.4985669107336426  0.4969753237005422  0.1742436966406583   T   T   T
  0.8317977665600473  0.4982113524227192  0.1732768251272802   T   T   T
  0.1674530328562809  0.8333145093839163  0.1716275300665960   T   T   T
  0.5005831268212722  0.8333090027966198  0.1715676742004234   T   T   T
  0.8341935533135426  0.8333866706905120  0.1715071091452998   T   T   T
  0.0001936332551244  0.9963859281136513  0.2578286858227277   T   T   T
  0.3349987212944574  0.9954086473807096  0.2580524835268815   T   T   T
  0.6666661403799602  0.9966788995307583  0.2577145285727903   T   T   T
  0.9905394795276354  0.3334989526648045  0.2571391763209525   T   T   T
  0.3411506153996154  0.3331746118821541  0.2789756630787040   T   T   T
  0.6673259057197058  0.3336298086529926  0.2628428650362515   T   T   T
  0.0001351128745730  0.6703945967911064  0.2577987575537084   T   T   T
  0.3349139761196840  0.6710545878685521  0.2580749611864739   T   T   T
  0.6665919795792565  0.6702237515268139  0.2577442676340354   T   T   T
  0.4584667463658654  0.3328144326062933  0.3593974401295362   T   T   T
  0.3949906759899218  0.3324355965846630  0.4070656993364409   T   T   T
  0.6114935203607407  0.3330224036325156  0.3544657819845911   T   T   T
  0.1364238946335266  0.3325376005115175  0.3195011928106846   T   T   T
 
  0.00000000E+00  0.00000000E+00  0.00000000E+00
  0.00000000E+00  0.00000000E+00  0.00000000E+00
  0.00000000E+00  0.00000000E+00  0.00000000E+00
  0.00000000E+00  0.00000000E+00  0.00000000E+00
  0.00000000E+00  0.00000000E+00  0.00000000E+00
  0.00000000E+00  0.00000000E+00  0.00000000E+00
  0.00000000E+00  0.00000000E+00  0.00000000E+00
  0.00000000E+00  0.00000000E+00  0.00000000E+00
  0.00000000E+00  0.00000000E+00  0.00000000E+00
  0.00000000E+00  0.00000000E+00  0.00000000E+00
  0.00000000E+00  0.00000000E+00  0.00000000E+00
  0.00000000E+00  0.00000000E+00  0.00000000E+00
  0.00000000E+00  0.00000000E+00  0.00000000E+00
  0.00000000E+00  0.00000000E+00  0.00000000E+00
  0.00000000E+00  0.00000000E+00  0.00000000E+00
  0.00000000E+00  0.00000000E+00  0.00000000E+00
  0.00000000E+00  0.00000000E+00  0.00000000E+00
  0.00000000E+00  0.00000000E+00  0.00000000E+00
  0.00000000E+00  0.00000000E+00  0.00000000E+00
  0.00000000E+00  0.00000000E+00  0.00000000E+00
  0.00000000E+00  0.00000000E+00  0.00000000E+00
  0.00000000E+00  0.00000000E+00  0.00000000E+00
  0.00000000E+00  0.00000000E+00  0.00000000E+00
  0.00000000E+00  0.00000000E+00  0.00000000E+00
  0.00000000E+00  0.00000000E+00  0.00000000E+00
  0.00000000E+00  0.00000000E+00  0.00000000E+00
  0.00000000E+00  0.00000000E+00  0.00000000E+00
  0.00000000E+00  0.00000000E+00  0.00000000E+00
  0.00000000E+00  0.00000000E+00  0.00000000E+00
  0.00000000E+00  0.00000000E+00  0.00000000E+00
  0.00000000E+00  0.00000000E+00  0.00000000E+00
  0.00000000E+00  0.00000000E+00  0.00000000E+00
  0.00000000E+00  0.00000000E+00  0.00000000E+00
  0.00000000E+00  0.00000000E+00  0.00000000E+00
  0.00000000E+00  0.00000000E+00  0.00000000E+00
  0.00000000E+00  0.00000000E+00  0.00000000E+00
  0.00000000E+00  0.00000000E+00  0.00000000E+00
  0.00000000E+00  0.00000000E+00  0.00000000E+00
  0.00000000E+00  0.00000000E+00  0.00000000E+00
  0.00000000E+00  0.00000000E+00  0.00000000E+00
